"PointID","x","y","Displacement_x","Displacement_y","Sxx","Syy","Sxy","Von_Mises_Stress"
0,-1.495276000000000e-01,1.435740000000000e-02,0.000000000000000e+00,0.000000000000000e+00,-1.740615372448630e+06,-6.091103104577188e+05,3.285366189221058e+05,1.308452882301129e+06,
1,-1.444322000000000e-01,1.449068000000000e-02,-1.111028392858026e-05,6.473041379128475e-06,-1.412826626027330e+06,-1.071664807565437e+04,4.065663924842845e+04,1.404465819994048e+06,
2,-1.392533000000000e-01,1.460910000000000e-02,-2.095411797213497e-05,1.336297921081712e-05,-1.294914722858564e+06,-5.069109545013933e+04,-9.565853430764189e+03,1.244370707309046e+06,
3,-1.339933000000000e-01,1.471270000000000e-02,-3.053148884165116e-05,2.361736057957161e-05,-1.229706278698159e+06,-3.899467616328542e+04,-4.505717752453282e+03,1.190745701810855e+06,
4,-1.286547000000000e-01,1.480152000000000e-02,-3.981939396046156e-05,3.724855568003465e-05,-1.167835093308990e+06,-4.068591640922653e+04,-2.167328292995509e+03,1.127157511722977e+06,
5,-1.232297000000000e-01,1.487356000000000e-02,-4.876321134900307e-05,5.431727801630852e-05,-1.104206854335191e+06,-3.836314847204763e+04,5.775271590140983e+02,1.065844331728868e+06,
6,-1.177160000000000e-01,1.492754000000000e-02,-5.735147649723652e-05,7.478454932395658e-05,-1.044287555562604e+06,-3.668227230342677e+04,2.307877425467457e+03,1.007615855395622e+06,
7,-1.121342000000000e-01,1.496711000000000e-02,-6.556426730083955e-05,9.852863638934525e-05,-9.875969890931615e+05,-3.463834467380767e+04,3.731003375842170e+03,9.529878590613496e+05,
8,-1.064868000000000e-01,1.499240000000000e-02,-7.339847879485846e-05,1.254744012422929e-04,-9.341735777553852e+05,-3.224136548355340e+04,5.026543940990487e+03,9.019882372345681e+05,
9,-1.007766000000000e-01,1.500356000000000e-02,-8.085662337214614e-05,1.555392033906610e-04,-8.844744026681143e+05,-3.000435983844272e+04,6.297752185563615e+03,8.545628711942169e+05,
10,-9.499069000000000e-02,1.499693000000000e-02,-8.794354030500325e-05,1.887348861668392e-04,-8.388164326808511e+05,-2.837006539252619e+04,7.254011435218239e+03,8.105762129364836e+05,
11,-8.914457000000001e-02,1.497536000000000e-02,-9.466365381502916e-05,2.249297527833509e-04,-7.962597236829210e+05,-2.699268567016702e+04,7.934119706629346e+03,7.694306835544008e+05,
12,-8.324681000000000e-02,1.494045000000000e-02,-1.010189888078075e-04,2.640186217908573e-04,-7.559935221175165e+05,-2.542371796142785e+04,8.542864680520546e+03,7.307695675741187e+05,
13,-7.730015000000000e-02,1.489242000000000e-02,-1.070117855242479e-04,3.059235780243831e-04,-7.180281025217172e+05,-2.376031105915146e+04,9.083604826667037e+03,6.945054454566191e+05,
14,-7.130565000000000e-02,1.483100000000000e-02,-1.126444251868132e-04,3.505770812633373e-04,-6.825299803474089e+05,-2.232439364765140e+04,9.639199661556770e+03,6.604869971392567e+05,
15,-6.525549999999999e-02,1.475287000000000e-02,-1.179060203964864e-04,3.979883659364817e-04,-6.496228014106076e+05,-2.119478053636320e+04,1.001070277690845e+04,6.287468760163109e+05,
16,-5.916815000000000e-02,1.466269000000000e-02,-1.228212183565006e-04,4.479675938762680e-04,-6.186300376892362e+05,-2.010122878434354e+04,1.023366964645756e+04,5.988786580492252e+05,
17,-5.304641000000000e-02,1.456073000000000e-02,-1.273930797918775e-04,5.004370222637163e-04,-5.892180302353585e+05,-1.895645057696042e+04,1.039247392661128e+04,5.706402398111726e+05,
18,-4.689310000000000e-02,1.444728000000000e-02,-1.316262947759544e-04,5.553169633134079e-04,-5.613806773224475e+05,-1.789573770487453e+04,1.053230923003147e+04,5.438930021079376e+05,
19,-4.070687000000000e-02,1.432072000000000e-02,-1.355116339410526e-04,6.125681087653292e-04,-5.351591783784741e+05,-1.692800280998742e+04,1.069149801396637e+04,5.186721352166765e+05,
20,-3.449269000000000e-02,1.418142000000000e-02,-1.390535794178693e-04,6.720965436985594e-04,-5.105322224912815e+05,-1.598210948535852e+04,1.079009683256627e+04,4.950207258618529e+05,
21,-2.825901000000000e-02,1.403192000000000e-02,-1.422758242896154e-04,7.337700879055354e-04,-4.873164308441817e+05,-1.510402595526585e+04,1.077343381072033e+04,4.727037368535066e+05,
22,-2.200871000000000e-02,1.387254000000000e-02,-1.451850547141325e-04,7.975070493871639e-04,-4.652867306041796e+05,-1.439279809021617e+04,1.064452437707659e+04,4.513962361105410e+05,
23,-1.574467000000000e-02,1.370361000000000e-02,-1.477858699103731e-04,8.632282160588927e-04,-4.441875415732437e+05,-1.373596319501453e+04,1.056962716730569e+04,4.309703347124164e+05,
24,-9.468287000000001e-03,1.352272000000000e-02,-1.500547983825186e-04,9.308712570846389e-04,-4.241275533283909e+05,-1.293462625175859e+04,1.058486921792363e+04,4.117375148116708e+05,
25,-3.186947000000000e-03,1.333279000000000e-02,-1.520240597087562e-04,1.000305848060448e-03,-4.052237864077493e+05,-1.208529652013735e+04,1.054281724956920e+04,3.937035384821214e+05,
26,3.095891000000000e-03,1.313470000000000e-02,-1.537083872781607e-04,1.071439732506642e-03,-3.874714640376164e+05,-1.148899224212391e+04,1.035198882795152e+04,3.765520864212870e+05,
27,9.377325000000001e-03,1.292879000000000e-02,-1.551154472110226e-04,1.144190258378669e-03,-3.705061446901920e+05,-1.114691783225284e+04,1.006703889667762e+04,3.599228181381734e+05,
28,1.565371000000000e-02,1.271483000000000e-02,-1.562418681338670e-04,1.218470103273881e-03,-3.540037813048864e+05,-1.066649231545338e+04,9.908106784295127e+03,3.439086744047168e+05,
29,2.191793000000000e-02,1.249190000000000e-02,-1.570754583698459e-04,1.294146192246459e-03,-3.382048623172531e+05,-9.878268465610519e+03,9.878510747312837e+03,3.289204951482358e+05,
30,2.816851000000000e-02,1.226256000000000e-02,-1.576533945905617e-04,1.371145849617897e-03,-3.234283824441954e+05,-9.178388704358338e+03,9.742138468275580e+03,3.148534510105104e+05,
31,3.440257000000000e-02,1.202713000000000e-02,-1.579860814686896e-04,1.449380787734812e-03,-3.095680434667802e+05,-8.908727993145301e+03,9.420739561302562e+03,3.012491084079790e+05,
32,4.061722000000000e-02,1.178595000000000e-02,-1.580798693755195e-04,1.528769578238646e-03,-2.960867122934724e+05,-8.783134007146105e+03,9.083246143947628e+03,2.878773480810418e+05,
33,4.680344000000000e-02,1.153829000000000e-02,-1.579216217645348e-04,1.609152606705336e-03,-2.828120341911975e+05,-8.288378624082558e+03,8.940548750751539e+03,2.751053818335625e+05,
34,5.295731000000000e-02,1.128508000000000e-02,-1.575256377156023e-04,1.690426379783567e-03,-2.701492361197150e+05,-7.524673863673869e+03,8.876102811317007e+03,2.632238619590661e+05,
35,5.907970000000000e-02,1.102748000000000e-02,-1.569159576377174e-04,1.772546570912159e-03,-2.584336870221893e+05,-7.073512782592446e+03,8.652037516130880e+03,2.519550916462746e+05,
36,6.516779000000000e-02,1.076581000000000e-02,-1.561025826021810e-04,1.855426258169082e-03,-2.473185068172153e+05,-7.074119078092762e+03,8.258015533464513e+03,2.408114306305862e+05,
37,7.121877000000000e-02,1.050038000000000e-02,-1.550898210222288e-04,1.938985657725836e-03,-2.362768893298981e+05,-6.987691076822533e+03,7.941812736274271e+03,2.298386955969128e+05,
38,7.721327000000000e-02,1.023050000000000e-02,-1.538615888786185e-04,2.022909805343369e-03,-2.253951308793232e+05,-6.416190322846685e+03,7.850896375440230e+03,2.195411640281350e+05,
39,8.316086000000000e-02,9.957779999999999e-03,-1.524501892138065e-04,2.107276754880748e-03,-2.151450814879160e+05,-5.772478494256338e+03,7.735215496665898e+03,2.099433759837639e+05,
40,8.905962000000001e-02,9.682586999999999e-03,-1.508683354737571e-04,2.192006642015463e-03,-2.056809728204378e+05,-5.604144268649848e+03,7.435441475566621e+03,2.006287130076048e+05,
41,9.490684000000001e-02,9.405215999999999e-03,-1.491238962923458e-04,2.277015936387622e-03,-1.965065787105634e+05,-5.736837261256696e+03,7.041486996036450e+03,1.912888507182181e+05,
42,1.006927000000000e-01,9.125795000000001e-03,-1.472158996763023e-04,2.362119980941923e-03,-1.872780656226731e+05,-5.562866017031159e+03,6.795548953720439e+03,1.822227529976647e+05,
43,1.064041000000000e-01,8.844654000000000e-03,-1.451475986772057e-04,2.447075475340938e-03,-1.782632342574706e+05,-4.978529096769884e+03,6.710947992699747e+03,1.738037293457015e+05,
44,1.120528000000000e-01,8.562551000000000e-03,-1.429412829654067e-04,2.532002466532988e-03,-1.698810406979462e+05,-4.556380223485110e+03,6.537153536476925e+03,1.658408299136064e+05,
45,1.176359000000000e-01,8.279764000000000e-03,-1.406069742780273e-04,2.616809216998323e-03,-1.620310827337059e+05,-4.609516961180573e+03,6.198526208120474e+03,1.579089493312033e+05,
46,1.231511000000000e-01,7.996573000000000e-03,-1.381508212046222e-04,2.701419561933258e-03,-1.542570211560843e+05,-4.729105033811436e+03,5.852944754805045e+03,1.499854177881326e+05,
47,1.285761000000000e-01,7.713363000000000e-03,-1.355734220537598e-04,2.785446711770981e-03,-1.464580801499290e+05,-4.449247813260237e+03,5.679183716675288e+03,1.424623493150914e+05,
48,1.339162000000000e-01,7.430629000000000e-03,-1.328887257550691e-04,2.868920607832366e-03,-1.389511980075646e+05,-3.970080939475812e+03,5.562101088511937e+03,1.354387309414274e+05,
49,1.391778000000000e-01,7.148639000000000e-03,-1.301094303826632e-04,2.951891270475006e-03,-1.319725802534899e+05,-3.797335482848662e+03,5.334326857179363e+03,1.286184805698259e+05,
50,1.443584000000000e-01,6.867660000000000e-03,-1.272437976819423e-04,3.034275899305678e-03,-1.252601428697922e+05,-3.938560512386407e+03,5.005725834963433e+03,1.217339538101186e+05,
51,1.494538000000000e-01,6.587994000000000e-03,-1.242974303252705e-04,3.115967789920657e-03,-1.185700783162603e+05,-3.953506243620993e+03,4.731212359043036e+03,1.150065044909546e+05,
52,1.544304000000000e-01,6.310653000000000e-03,-1.212806969977229e-04,3.196380881206031e-03,-1.119640166457362e+05,-3.655565071845993e+03,4.590202068984154e+03,1.086968283919552e+05,
53,1.593162000000000e-01,6.035437000000000e-03,-1.182031874817888e-04,3.275917254577210e-03,-1.056464514560854e+05,-3.367976364801485e+03,4.423741192053842e+03,1.026604325508882e+05,
54,1.641087000000000e-01,5.762604000000000e-03,-1.150736794995775e-04,3.354492766324554e-03,-9.967819508484284e+04,-3.367791692243960e+03,4.171305264922808e+03,9.667105539973076e+04,
55,1.688059000000000e-01,5.492413000000000e-03,-1.118992664245167e-04,3.432034916552995e-03,-9.383825067160664e+04,-3.468051811482556e+03,3.891631846468831e+03,9.070475200193304e+04,
56,1.733892000000000e-01,5.225662000000000e-03,-1.086913530715598e-04,3.508195486791752e-03,-8.806181448920775e+04,-3.390307483434793e+03,3.682447133013251e+03,8.499120993478331e+04,
57,1.778487000000000e-01,4.963035000000000e-03,-1.054631797637145e-04,3.582763931063374e-03,-8.242773647240983e+04,-3.172507001318720e+03,3.524359725605142e+03,7.956805794046489e+04,
58,1.822038000000000e-01,4.704131000000000e-03,-1.022174771107755e-04,3.656020545665444e-03,-7.703014262277371e+04,-3.060428285887194e+03,3.329881731745579e+03,7.426891064550662e+04,
59,1.864526000000000e-01,4.449203000000000e-03,-9.896210317967943e-05,3.727894583519387e-03,-7.181861991674572e+04,-3.114087048488641e+03,3.087337020292517e+03,6.898144269405282e+04,
60,1.905931000000000e-01,4.198504000000000e-03,-9.570390723601409e-05,3.798315322999361e-03,-6.673109950711826e+04,-3.154251647074071e+03,2.854038387999453e+03,6.383257572979413e+04,
61,1.945892000000000e-01,3.953786000000000e-03,-9.246842105941071e-05,3.866628056665297e-03,-6.175892644529840e+04,-3.074668074380494e+03,2.672543007104772e+03,5.892717645572327e+04,
62,1.984619000000000e-01,3.714468000000000e-03,-8.925459661578127e-05,3.933149742740030e-03,-5.690440286345295e+04,-2.960145403755361e+03,2.497318736383444e+03,5.417498792212608e+04,
63,2.022186000000000e-01,3.480426000000000e-03,-8.606592731738413e-05,3.997970373214352e-03,-5.222853489162869e+04,-2.948469187229284e+03,2.294967363648222e+03,4.949335689393845e+04,
64,2.058574000000000e-01,3.251905000000000e-03,-8.290967805311570e-05,4.061022806680054e-03,-4.768085844590899e+04,-3.017789020865912e+03,2.070365898808655e+03,4.485460322292482e+04,
65,2.093693000000000e-01,3.029515000000000e-03,-7.979774587451563e-05,4.122117190795002e-03,-4.327799122669148e+04,-3.041182329538844e+03,1.868191557695113e+03,4.040991646874507e+04,
66,2.127198000000000e-01,2.815267000000000e-03,-7.676219282169738e-05,4.180616566007506e-03,-3.900186423272005e+04,-3.011977350246946e+03,1.688663771425467e+03,3.614800546565340e+04,
67,2.159455000000000e-01,2.607538000000000e-03,-7.378574365243745e-05,4.237124744524010e-03,-3.482483279959773e+04,-3.003172883939066e+03,1.503643254099793e+03,3.196344493214454e+04,
68,2.190452000000000e-01,2.406556000000000e-03,-7.087558337172244e-05,4.291590387720030e-03,-3.079573156065239e+04,-3.059330905441067e+03,1.303021267104171e+03,2.785856024629611e+04,
69,2.220172000000000e-01,2.212545000000000e-03,-6.803846212135816e-05,4.343954789835666e-03,-2.691939640259530e+04,-3.142405717056423e+03,1.099780441338738e+03,2.387851239371514e+04,
70,2.248340000000000e-01,2.027254000000000e-03,-6.530345076434330e-05,4.393704430293182e-03,-2.319872125854657e+04,-3.185342908603055e+03,9.133734292281804e+02,2.009657475946754e+04,
71,2.274956000000000e-01,1.850947000000000e-03,-6.267878458736468e-05,4.440810508814341e-03,-1.963907563567943e+04,-3.259763306049387e+03,7.453734010145581e+02,1.644701183860858e+04,
72,2.300241000000000e-01,1.682496000000000e-03,-6.015180455721802e-05,4.485639011130441e-03,-1.623703399265438e+04,-3.319323785996666e+03,5.703294509292514e+02,1.296797361632024e+04,
73,2.324184000000000e-01,1.522094000000000e-03,-5.772871401499903e-05,4.528148284375410e-03,-1.297790478433083e+04,-3.335837178080889e+03,3.821596360729184e+02,9.672313667022379e+03,
74,2.346773000000000e-01,1.369935000000000e-03,-5.541544817033543e-05,4.568296412288536e-03,-1.001543256408821e+04,-3.584375588077788e+03,2.327203306003402e+02,6.447877855371584e+03,
75,2.367526000000000e-01,1.229302000000000e-03,-5.326526210187048e-05,4.605208549432426e-03,-7.313947997401824e+03,-3.783950128755705e+03,9.266989894230130e+01,3.534860081152583e+03,
76,2.386838000000000e-01,1.097928000000000e-03,-5.124733705630028e-05,4.639571537396506e-03,-4.787481749834778e+03,-3.769478409477223e+03,-5.928157421078491e+01,1.024884394038066e+03,
77,2.404756000000000e-01,9.754269000000000e-04,-4.935792375588310e-05,4.671456273809723e-03,-2.601948575574671e+03,-3.961346115369079e+03,-1.838454835739961e+02,1.408246540390324e+03,
78,2.421274000000000e-01,8.618286000000000e-04,-4.759958354001333e-05,4.700843166401968e-03,-7.489956495212421e+02,-4.219918990037770e+03,-2.896469702065640e+02,3.518933120299643e+03,
79,2.436242000000000e-01,7.581486000000000e-04,-4.598988347426070e-05,4.727459632064303e-03,7.831998652980941e+02,-4.377033152175008e+03,-3.390044749493751e+02,5.204584606936692e+03,
80,2.449378000000000e-01,6.676967000000000e-04,-4.458500462877721e-05,4.750801810727018e-03,1.832348920026268e+03,-4.630670463107914e+03,-3.837939631412014e+02,6.508441500954177e+03,
81,2.461073000000000e-01,5.880181000000000e-04,-4.334872380667123e-05,4.771565903983507e-03,2.419707697994896e+03,-4.847842338869461e+03,-4.141765426764259e+02,7.314605414671436e+03,
82,2.471341000000000e-01,5.170859000000000e-04,-4.224614947252526e-05,4.789780423419873e-03,2.492463863971328e+03,-4.781028207552430e+03,-2.381725504326312e+02,7.289073436976561e+03,
83,2.480196000000000e-01,4.528477000000000e-04,-4.124216785282509e-05,4.805475064607194e-03,2.113158501458715e+03,-5.545729808953620e+03,-6.227993558278521e+02,7.759515854861633e+03,
84,2.487303000000000e-01,3.958708000000000e-04,-4.034062065283118e-05,4.818063845392939e-03,1.616895284540381e+03,-5.340238537633009e+03,-8.935366899172823e+01,6.959428664213613e+03,
85,2.492635000000000e-01,3.633241000000000e-04,-3.984627086098586e-05,4.827502173662379e-03,-8.771560524429169e+02,-4.404171080746630e+03,5.922905333220867e+02,3.720627274174623e+03,
86,2.496380000000000e-01,3.554192000000000e-04,-3.976578744152178e-05,4.834127912498419e-03,-7.396095893920822e+02,-4.008078335542486e+03,-2.321870325380772e+02,3.301292355559766e+03,
87,2.498726000000000e-01,3.512388000000000e-04,-3.972762649484667e-05,4.838280681012568e-03,3.430572923163763e+03,2.461643816999454e+03,2.459534914848926e+03,5.013588694958535e+03,
88,2.500000000000000e-01,3.150000000000000e-04,-3.910619152531357e-05,4.840539820081436e-03,1.013394321956830e+04,1.194364776330764e+04,6.709957776106877e+03,1.354138707681674e+04,
89,-1.495276000000000e-01,1.076805000000000e-02,0.000000000000000e+00,0.000000000000000e+00,-1.103317935627375e+06,-3.858473536149026e+05,2.015829202828415e+05,8.229864707589970e+05,
90,-1.444322000000000e-01,1.086801000000000e-02,-7.044990926285343e-06,3.971802789779241e-06,-9.955687339773166e+05,1.901369855039745e+04,4.163848151729853e+04,1.017994383563151e+06,
91,-1.392533000000000e-01,1.095682000000000e-02,-1.489147289356008e-05,1.126538525492325e-05,-9.981219068989779e+05,9.130064110533667e+03,2.536646582980491e+04,1.008528811416573e+06,
92,-1.339933000000000e-01,1.103452000000000e-02,-2.224503277989970e-05,2.156816950512661e-05,-9.234507239277881e+05,1.669903987177363e+04,1.911150794088952e+04,9.409264462833802e+05,
93,-1.286547000000000e-01,1.110114000000000e-02,-2.929677098435469e-05,3.531621749511103e-05,-8.694135924979791e+05,1.550225968351701e+04,2.070462221552699e+04,8.858841859783108e+05,
94,-1.232297000000000e-01,1.115517000000000e-02,-3.606912149819118e-05,5.248846213394120e-05,-8.200587542337939e+05,1.451199874550080e+04,2.132646799568598e+04,8.356599874812189e+05,
95,-1.177160000000000e-01,1.119566000000000e-02,-4.256518066955919e-05,7.305978379978039e-05,-7.743685402546241e+05,1.354578554914249e+04,2.137219365128387e+04,7.890729164359121e+05,
96,-1.121342000000000e-01,1.122533000000000e-02,-4.877400395123245e-05,9.690301450105445e-05,-7.317932067963687e+05,1.292634321707054e+04,2.126337403095784e+04,7.459327935363490e+05,
97,-1.064868000000000e-01,1.124430000000000e-02,-5.470024009966239e-05,1.239424989435680e-04,-6.921770330932138e+05,1.268522869363958e+04,2.109847331705952e+04,7.061242032365988e+05,
98,-1.007766000000000e-01,1.125267000000000e-02,-6.034781066317993e-05,1.540970506904251e-04,-6.552653705621131e+05,1.248604751498161e+04,2.096422917248815e+04,6.690664779849289e+05,
99,-9.499069000000000e-02,1.124770000000000e-02,-6.571823727243299e-05,1.873802889165896e-04,-6.209515223670087e+05,1.200489979696013e+04,2.063509074208143e+04,6.343004495019282e+05,
100,-8.914457000000001e-02,1.123152000000000e-02,-7.081095755518039e-05,2.236598198980307e-04,-5.889080390310006e+05,1.145125197762935e+04,2.026115999325643e+04,6.017253000476831e+05,
101,-8.324681000000000e-02,1.120534000000000e-02,-7.563092787362074e-05,2.628291569816647e-04,-5.589160789017861e+05,1.110032522137093e+04,1.990949894126818e+04,5.714055071154493e+05,
102,-7.730015000000000e-02,1.116932000000000e-02,-8.018234751467418e-05,3.048106206878936e-04,-5.308142305370397e+05,1.089792802669630e+04,1.955018939638942e+04,5.431214434705381e+05,
103,-7.130565000000000e-02,1.112325000000000e-02,-8.446778053545854e-05,3.495378968618334e-04,-5.044657756614540e+05,1.063039273761919e+04,1.923205964793016e+04,5.165303003431769e+05,
104,-6.525549999999999e-02,1.106465000000000e-02,-8.847755819665798e-05,3.970204566739704e-04,-4.798246662560009e+05,1.022943719803749e+04,1.880175368811050e+04,4.914947080886374e+05,
105,-5.916815000000000e-02,1.099702000000000e-02,-9.222830125108961e-05,4.470677905702391e-04,-4.566416251437163e+05,9.875202072282242e+03,1.837219944357330e+04,4.679616447159529e+05,
106,-5.304641000000000e-02,1.092055000000000e-02,-9.572476789247561e-05,4.996021560046711e-04,-4.348140919915134e+05,9.601395395008258e+03,1.793187621005782e+04,4.458602181924856e+05,
107,-4.689310000000000e-02,1.083546000000000e-02,-9.897115964963753e-05,5.545444559779185e-04,-4.142109850832719e+05,9.325702294697401e+03,1.751121672249365e+04,4.249822306867809e+05,
108,-4.070687000000000e-02,1.074054000000000e-02,-1.019611543066287e-04,6.118553440159437e-04,-3.947899858637574e+05,9.042722668518032e+03,1.711206456494757e+04,4.052803319866552e+05,
109,-3.449269000000000e-02,1.063606000000000e-02,-1.046973826446879e-04,6.714404603888048e-04,-3.764886622697569e+05,8.805587719087187e+03,1.669840477252578e+04,3.867389377374023e+05,
110,-2.825901000000000e-02,1.052394000000000e-02,-1.071973065510143e-04,7.331679935555114e-04,-3.591984285681456e+05,8.569078516227170e+03,1.624982442770038e+04,3.692007129499868e+05,
111,-2.200871000000000e-02,1.040441000000000e-02,-1.094656421224492e-04,7.969570745410515e-04,-3.428249838828663e+05,8.240046766887695e+03,1.576426524905596e+04,3.524779482187264e+05,
112,-1.574467000000000e-02,1.027771000000000e-02,-1.115066009447045e-04,8.627283095450676e-04,-3.272542178021277e+05,7.904199394029694e+03,1.533567251275631e+04,3.365589042398188e+05,
113,-9.468287000000001e-03,1.014204000000000e-02,-1.133038583152091e-04,9.304182472515855e-04,-3.124981527401202e+05,7.721259639512557e+03,1.496495203519250e+04,3.216150979391667e+05,
114,-3.186947000000000e-03,9.999591000000000e-03,-1.148811176742229e-04,9.998967065745568e-04,-2.985222612198422e+05,7.627982836817809e+03,1.457563808621389e+04,3.075349879906896e+05,
115,3.095891000000000e-03,9.851024999999999e-03,-1.162484516108194e-04,1.071072841234969e-03,-2.852875191896085e+05,7.375402839620260e+03,1.411207831560114e+04,2.940207287730391e+05,
116,9.377325000000001e-03,9.696590999999999e-03,-1.174103873618305e-04,1.143864565443667e-03,-2.726685328541571e+05,6.944649693860290e+03,1.362340062045625e+04,2.809375731946381e+05,
117,1.565371000000000e-02,9.536124999999999e-03,-1.183660716311112e-04,1.218183234663250e-03,-2.605733429440068e+05,6.641113191348773e+03,1.322656888472598e+04,2.685206399246871e+05,
118,2.191793000000000e-02,9.368925000000000e-03,-1.191076921831267e-04,1.293894638177112e-03,-2.490487962657159e+05,6.615890164776361e+03,1.291478908319175e+04,2.569661436762735e+05,
119,2.816851000000000e-02,9.196915999999999e-03,-1.196624395038876e-04,1.370927355674435e-03,-2.381262869005979e+05,6.565657289587525e+03,1.253635335835075e+04,2.459731452286500e+05,
120,3.440257000000000e-02,9.020346000000000e-03,-1.200360218142406e-04,1.449194768246764e-03,-2.277538462015251e+05,6.196268061499266e+03,1.206367169431897e+04,2.351909536157278e+05,
121,4.061722000000000e-02,8.839461000000000e-03,-1.202326897228393e-04,1.528614981268341e-03,-2.177719221302690e+05,5.718625982240375e+03,1.160506820252482e+04,2.246925355403932e+05,
122,4.680344000000000e-02,8.653717999999999e-03,-1.202446414327858e-04,1.609026464195559e-03,-2.081356218882678e+05,5.552920161070062e+03,1.128240830517356e+04,2.148766249544846e+05,
123,5.295731000000000e-02,8.463808999999999e-03,-1.200836545330130e-04,1.690325595338633e-03,-1.989358509760389e+05,5.640405359560420e+03,1.100505683984820e+04,2.057568705061438e+05,
124,5.907970000000000e-02,8.270609999999999e-03,-1.197662612000150e-04,1.772469974118763e-03,-1.902316298632195e+05,5.507134290694796e+03,1.062442442764705e+04,1.968887436350205e+05,
125,6.516779000000000e-02,8.074356000000000e-03,-1.192975342689901e-04,1.855373693857083e-03,-1.819126354087068e+05,5.013498871497055e+03,1.016203969803183e+04,1.880277848623397e+05,
126,7.121877000000000e-02,7.875283000000000e-03,-1.186816539594595e-04,1.938955559052249e-03,-1.738181384679739e+05,4.594197160144749e+03,9.755252416599596e+03,1.794759630232605e+05,
127,7.721327000000000e-02,7.672873000000000e-03,-1.179079620974235e-04,2.022899025603307e-03,-1.659760169960880e+05,4.594874793428359e+03,9.517192034573971e+03,1.716296504184598e+05,
128,8.316086000000000e-02,7.468335000000000e-03,-1.170013421982140e-04,2.107283149923743e-03,-1.585099462488327e+05,4.687742584521951e+03,9.245154459728345e+03,1.642418252592359e+05,
129,8.905962000000001e-02,7.261940000000000e-03,-1.159690107054371e-04,2.192029873303706e-03,-1.514456041873461e+05,4.403080128751933e+03,8.861296355337776e+03,1.568531245957416e+05,
130,9.490684000000001e-02,7.053912000000000e-03,-1.148155511311264e-04,2.277055622520122e-03,-1.446208232247247e+05,3.866320118506349e+03,8.433080530500574e+03,1.494419590582541e+05,
131,1.006927000000000e-01,6.844346000000000e-03,-1.135413578033238e-04,2.362174078104254e-03,-1.379227103735058e+05,3.593933814512491e+03,8.109099919940664e+03,1.424429380077668e+05,
132,1.064041000000000e-01,6.633491000000000e-03,-1.121498474713759e-04,2.447141373906218e-03,-1.314371188382510e+05,3.691452871001334e+03,7.904982352430656e+03,1.360503064169703e+05,
133,1.120528000000000e-01,6.421913000000000e-03,-1.106575046019321e-04,2.532079011198245e-03,-1.252896184707206e+05,3.674439804582209e+03,7.627874379724068e+03,1.298632596119746e+05,
134,1.176359000000000e-01,6.209823000000000e-03,-1.090697854409047e-04,2.616896329697119e-03,-1.194359789720217e+05,3.257836161391750e+03,7.254980786606073e+03,1.235488213494905e+05,
135,1.231511000000000e-01,5.997430000000000e-03,-1.073911208976898e-04,2.701516381638757e-03,-1.137121984674865e+05,2.783885872659858e+03,6.876042854339723e+03,1.173049765693057e+05,
136,1.285761000000000e-01,5.785022000000000e-03,-1.056222997134666e-04,2.785551172239397e-03,-1.080798933651155e+05,2.666719952154413e+03,6.633950216322604e+03,1.115385563073841e+05,
137,1.339162000000000e-01,5.572972000000000e-03,-1.037746219379310e-04,2.869031000540663e-03,-1.026536996495673e+05,2.743000772143410e+03,6.427242182043736e+03,1.061776917626786e+05,
138,1.391778000000000e-01,5.361479000000000e-03,-1.018567229402953e-04,2.952007083535653e-03,-9.750641259925501e+04,2.564724515782275e+03,6.143476130238864e+03,1.008226248386137e+05,
139,1.443584000000000e-01,5.150745000000000e-03,-9.987357603265559e-05,3.034396858361731e-03,-9.254214862442647e+04,2.112172134646947e+03,5.801347621872201e+03,9.536279659951654e+04,
140,1.494538000000000e-01,4.940995000000000e-03,-9.782973953573190e-05,3.116092732799204e-03,-8.765593718396872e+04,1.775213559753217e+03,5.479996976818897e+03,9.010023413293716e+04,
141,1.544304000000000e-01,4.732990000000000e-03,-9.573211472321298e-05,3.196508236929550e-03,-8.287242006887106e+04,1.730561729048151e+03,5.290382073178052e+03,8.526204958256552e+04,
142,1.593162000000000e-01,4.526578000000000e-03,-9.358905685404919e-05,3.276046111042407e-03,-7.827611272507365e+04,1.689531250374812e+03,5.064527417919095e+03,8.060460264944921e+04,
143,1.641087000000000e-01,4.321953000000000e-03,-9.140604757406467e-05,3.354622797632946e-03,-7.387914846539134e+04,1.397511787281625e+03,4.786886885623333e+03,7.588301999142735e+04,
144,1.688059000000000e-01,4.119309000000000e-03,-8.918803800966433e-05,3.432165559909488e-03,-6.959332523557238e+04,1.017544223596562e+03,4.484530811899235e+03,7.117821964752485e+04,
145,1.733892000000000e-01,3.919247000000000e-03,-8.694314392629815e-05,3.508325717145485e-03,-6.538330468373359e+04,8.068910784692705e+02,4.236786484352162e+03,6.673037879328046e+04,
146,1.778487000000000e-01,3.722276000000000e-03,-8.468090319690156e-05,3.582892834237273e-03,-6.128728406378845e+04,7.356738348728655e+02,4.043314254264167e+03,6.254790857521983e+04,
147,1.822038000000000e-01,3.528098000000000e-03,-8.240393825960012e-05,3.656147635263609e-03,-5.734224284857724e+04,5.744918361942555e+02,3.815413145387178e+03,5.841727198719729e+04,
148,1.864526000000000e-01,3.336902000000000e-03,-8.011749660932828e-05,3.728019523409952e-03,-5.352501810500654e+04,2.652935526845994e+02,3.558914585756497e+03,5.425920309354336e+04,
149,1.905931000000000e-01,3.148878000000000e-03,-7.782668125212529e-05,3.798437540292272e-03,-4.980361263558877e+04,-2.618900348265413e+01,3.290678280620146e+03,5.021061797704083e+04,
150,1.945892000000000e-01,2.965340000000000e-03,-7.554902146806019e-05,3.866746919303462e-03,-4.617281215383123e+04,-1.967120954011391e+02,3.090352488255405e+03,4.638968517450232e+04,
151,1.984619000000000e-01,2.785851000000000e-03,-7.328460991904051e-05,3.933264783356679e-03,-4.263983564478395e+04,-3.278530165888828e+02,2.888848577111303e+03,4.270463275026016e+04,
152,2.022186000000000e-01,2.610320000000000e-03,-7.103607045862053e-05,3.998081313361692e-03,-3.922154525712471e+04,-5.516544700544556e+02,2.666889891578994e+03,3.903600466568225e+04,
153,2.058574000000000e-01,2.438929000000000e-03,-6.880848331257222e-05,4.061129386065906e-03,-3.590234394293678e+04,-8.456121629601538e+02,2.428341623635128e+03,3.539155005446269e+04,
154,2.093693000000000e-01,2.272136000000000e-03,-6.661041378683375e-05,4.122219039646541e-03,-3.268395725710928e+04,-1.090251444924177e+03,2.194221787885124e+03,3.189703252599867e+04,
155,2.127198000000000e-01,2.111451000000000e-03,-6.446428644702677e-05,4.180713431508824e-03,-2.955959490913963e+04,-1.276173790835610e+03,2.008100059702324e+03,2.856714500180988e+04,
156,2.159455000000000e-01,1.955654000000000e-03,-6.235859039900008e-05,4.237216449276137e-03,-2.651837029901835e+04,-1.477062057037431e+03,1.802657011638019e+03,2.529951398103000e+04,
157,2.190452000000000e-01,1.804917000000000e-03,-6.029840293740837e-05,4.291676816634304e-03,-2.357670978202606e+04,-1.735637728856167e+03,1.588685960361649e+03,2.207097915259674e+04,
158,2.220172000000000e-01,1.659409000000000e-03,-5.828862708455797e-05,4.344035826776822e-03,-2.074627395328007e+04,-2.011877873983699e+03,1.365032848574346e+03,1.893227020636202e+04,
159,2.248340000000000e-01,1.520441000000000e-03,-5.634979306486959e-05,4.393780006142886e-03,-1.802495681635901e+04,-2.242602010422672e+03,1.163969066790124e+03,1.595311941829055e+04,
160,2.274956000000000e-01,1.388210000000000e-03,-5.448795453320256e-05,4.440880659080956e-03,-1.542605809048508e+04,-2.493398725517737e+03,9.819854206487732e+02,1.308093497100817e+04,
161,2.300241000000000e-01,1.261872000000000e-03,-5.269442556179787e-05,4.485703734784879e-03,-1.294285572075194e+04,-2.722954022895625e+03,7.896418456119241e+02,1.034120533067650e+04,
162,2.324184000000000e-01,1.141571000000000e-03,-5.097370931355296e-05,4.528207614090621e-03,-1.056226931584941e+04,-2.905352476541409e+03,5.904251279645662e+02,7.747437176964161e+03,
163,2.346773000000000e-01,1.027452000000000e-03,-4.933010442207216e-05,4.568350536020669e-03,-8.396624129343103e+03,-3.297431228023455e+03,4.170608398928017e+02,5.166964991322958e+03,
164,2.367526000000000e-01,9.219766000000000e-04,-4.780138081111996e-05,4.605257672468150e-03,-6.415305931060375e+03,-3.631108922622278e+03,2.628962487599621e+02,2.833409736032524e+03,
165,2.386838000000000e-01,8.234458000000000e-04,-4.636609862427077e-05,4.639615770765136e-03,-4.563230575500756e+03,-3.745307188924825e+03,9.443822517829071e+01,8.394480209084693e+02,
166,2.404756000000000e-01,7.315702000000000e-04,-4.502157499124000e-05,4.671495898503306e-03,-2.954105013168213e+03,-4.039869839867497e+03,-4.921368766212551e+01,1.090217045872310e+03,
167,2.421274000000000e-01,6.463714000000000e-04,-4.376954999126804e-05,4.700878430017322e-03,-1.574403820654068e+03,-4.384770526414988e+03,-1.721449797716077e+02,2.831377155571428e+03,
168,2.436242000000000e-01,5.686115000000000e-04,-4.262260363242570e-05,4.727490804168946e-03,-4.207320939239609e+02,-4.612030616022808e+03,-2.426531341787152e+02,4.219301538815992e+03,
169,2.449378000000000e-01,5.007725000000000e-04,-4.162172606514246e-05,4.750829370317552e-03,3.899317032071248e+02,-4.912206776200838e+03,-3.170014103140584e+02,5.339909365465204e+03,
170,2.461073000000000e-01,4.410136000000000e-04,-4.074129674954658e-05,4.771590222169350e-03,8.530217007097515e+02,-5.131399504419851e+03,-3.607532611177032e+02,6.027758192067186e+03,
171,2.471341000000000e-01,3.878144000000000e-04,-3.995536269788895e-05,4.789801764931640e-03,1.019303585573521e+03,-5.078467638013984e+03,-2.602040309408688e+02,6.119937781226485e+03,
172,2.480196000000000e-01,3.396357000000000e-04,-3.923736885711526e-05,4.805493828793106e-03,7.979103481116659e+02,-5.803746136321710e+03,-5.640056164137603e+02,6.697333624648418e+03,
173,2.487303000000000e-01,2.969031000000000e-04,-3.858929023912568e-05,4.818080174185981e-03,3.942996863462902e+02,-5.488917717763026e+03,-1.703446479979283e+02,5.893073580095614e+03,
174,2.492635000000000e-01,2.724930000000000e-04,-3.823966138347260e-05,4.827516916950503e-03,-8.906670816468069e+02,-4.529485201915815e+03,1.787615756029264e+02,3.656339715623570e+03,
175,2.496380000000000e-01,2.665644000000000e-04,-3.819352713881061e-05,4.834142297664251e-03,-1.407882054821893e+03,-3.682015541867054e+03,5.653895440613661e+01,2.276943067000477e+03,
176,2.498726000000000e-01,2.634291000000000e-04,-3.817476876377264e-05,4.838294282096449e-03,-1.826325929860806e+03,1.686552820147488e+03,1.990300333807016e+03,5.309001675199313e+03,
177,2.500443000000000e-01,1.975620000000000e-04,-3.703809380887192e-05,4.841340542267120e-03,1.596855860689468e+03,7.024579857997162e+03,4.838486101931439e+03,1.109522324359833e+04,
178,-1.495276000000000e-01,7.178700000000000e-03,0.000000000000000e+00,0.000000000000000e+00,-6.953384713382460e+05,-2.431682390746187e+05,1.357711875110359e+05,5.274402149798309e+05,
179,-1.444322000000000e-01,7.245339000000000e-03,-4.440636624607751e-06,2.674893717179571e-06,-6.527917805900754e+05,-4.114330109909336e+04,6.557344403457777e+04,6.255504525726553e+05,
180,-1.392533000000000e-01,7.304550000000000e-03,-9.459967282867663e-06,9.630377748424344e-06,-6.554564256673487e+05,1.915773100522602e+04,6.423173701769416e+04,6.867365758020247e+05,
181,-1.339933000000000e-01,7.356349000000000e-03,-1.448014771742822e-05,2.006222224066447e-05,-6.263395149412095e+05,1.606886456275891e+04,5.798414756331877e+04,6.527918286341317e+05,
182,-1.286547000000000e-01,7.400758000000000e-03,-1.924522664705203e-05,3.389626422878551e-05,-5.846556176415000e+05,1.533488059638927e+04,5.421472078577125e+04,6.097093912473934e+05,
183,-1.232297000000000e-01,7.436779000000000e-03,-2.380273120772635e-05,5.115651509988229e-05,-5.494200004033232e+05,1.399783165741856e+04,5.144773517784216e+04,5.727365286968728e+05,
184,-1.177160000000000e-01,7.463770000000000e-03,-2.816799298634835e-05,7.180870454378109e-05,-5.178527531132589e+05,1.302985808480137e+04,4.861380187842445e+04,5.397124732714352e+05,
185,-1.121342000000000e-01,7.483554000000000e-03,-3.234096334194117e-05,9.572787706855086e-05,-4.889675287949869e+05,1.242402735700700e+04,4.614048467164598e+04,5.098129753973075e+05,
186,-1.064868000000000e-01,7.496199000000000e-03,-3.632771777567197e-05,1.228382239272557e-04,-4.622759412865973e+05,1.215258523456295e+04,4.379642540586437e+04,4.824468201681559e+05,
187,-1.007766000000000e-01,7.501779000000000e-03,-4.013231902041545e-05,1.530608849991665e-04,-4.374354545953327e+05,1.191776248301653e+04,4.160962534178917e+04,4.569942640591874e+05,
188,-9.499069000000000e-02,7.498467000000000e-03,-4.375587555728962e-05,1.864115386117883e-04,-4.143101962792933e+05,1.142917761126661e+04,3.939935877361214e+04,4.329702673022862e+05,
189,-8.914457000000001e-02,7.487682000000000e-03,-4.719768533476064e-05,2.227563893634452e-04,-3.927016081170163e+05,1.090115828958886e+04,3.743435744580906e+04,4.104881454081069e+05,
190,-8.324681000000000e-02,7.470227000000000e-03,-5.046147972752710e-05,2.619873641431957e-04,-3.725237369384644e+05,1.056299414397965e+04,3.565735346005973e+04,3.896681035888559e+05,
191,-7.730015000000000e-02,7.446210000000000e-03,-5.355117981123124e-05,3.040272616374371e-04,-3.536736332980451e+05,1.035455707114518e+04,3.397387874395734e+04,3.703152996179120e+05,
192,-7.130565000000000e-02,7.415502000000000e-03,-5.646905996981214e-05,3.488110056046019e-04,-3.359913103006799e+05,1.010757841062662e+04,3.239350342581214e+04,3.521104897954529e+05,
193,-6.525549999999999e-02,7.376436000000000e-03,-5.920852583651906e-05,3.963487727094805e-04,-3.194363007168294e+05,9.718755479241561e+03,3.081062839487473e+04,3.348734541700594e+05,
194,-5.916815000000000e-02,7.331344000000000e-03,-6.178029515462860e-05,4.464488723832807e-04,-3.038571407378814e+05,9.368967833327686e+03,2.941225050399641e+04,3.187019250169384e+05,
195,-5.304641000000000e-02,7.280364000000000e-03,-6.418797392514428e-05,4.990333097973659e-04,-2.892224271569118e+05,9.100322222827086e+03,2.809179855350537e+04,3.035672238259088e+05,
196,-4.689310000000000e-02,7.223638000000000e-03,-6.643495582460927e-05,5.540235066274727e-04,-2.754399700154309e+05,8.858221049138869e+03,2.685260548120684e+04,2.893263056258521e+05,
197,-4.070687000000000e-02,7.160359000000000e-03,-6.851733369369367e-05,6.113803279489229e-04,-2.624524176334639e+05,8.613995357392932e+03,2.566406645187073e+04,2.758832678491283e+05,
198,-3.449269000000000e-02,7.090710000000000e-03,-7.043679755292693e-05,6.710093232354623e-04,-2.502044820417802e+05,8.374421057335510e+03,2.453009171050573e+04,2.631918515555623e+05,
199,-2.825901000000000e-02,7.015961000000000e-03,-7.220456128124055e-05,7.327788182862287e-04,-2.386271194712602e+05,8.116607175499413e+03,2.345763079698926e+04,2.511643056048416e+05,
200,-2.200871000000000e-02,6.936272000000000e-03,-7.382383425425918e-05,7.966082567431058e-04,-2.276802752935408e+05,7.808448688369912e+03,2.243745935270841e+04,2.397262969543523e+05,
201,-1.574467000000000e-02,6.851805000000000e-03,-7.529779581609932e-05,8.624178478958473e-04,-2.172969039935279e+05,7.542955696583896e+03,2.150079589801534e+04,2.289150484403802e+05,
202,-9.468287000000001e-03,6.761359000000000e-03,-7.661595349224924e-05,9.301437152603239e-04,-2.074775963267598e+05,7.385067272900022e+03,2.061043062467144e+04,2.187809946299682e+05,
203,-3.186947000000000e-03,6.666394000000000e-03,-7.779390460232034e-05,9.996560563523991e-04,-1.981638908417603e+05,7.256566336054114e+03,1.974470391828419e+04,2.091816855234346e+05,
204,3.095891000000000e-03,6.567350000000000e-03,-7.883779433493515e-05,1.070865048907786e-03,-1.893243542352575e+05,6.980964992808985e+03,1.888373035405503e+04,1.999053762297847e+05,
205,9.377325000000001e-03,6.464394000000000e-03,-7.975039191283221e-05,1.143688543872308e-03,-1.809080705844524e+05,6.603663810684362e+03,1.808214828815507e+04,1.909672927040954e+05,
206,1.565371000000000e-02,6.357417000000000e-03,-8.053153144945968e-05,1.218036635322482e-03,-1.728822885765783e+05,6.376116109940461e+03,1.736220284694507e+04,1.825906897997529e+05,
207,2.191793000000000e-02,6.245950000000000e-03,-8.117638381667031e-05,1.293774770857745e-03,-1.652588998989079e+05,6.344399646317082e+03,1.668930693790934e+04,1.748194047555340e+05,
208,2.816851000000000e-02,6.131278000000000e-03,-8.170275594717209e-05,1.370832872196648e-03,-1.580056321381519e+05,6.239288515029790e+03,1.598148702084101e+04,1.673261057634438e+05,
209,3.440257000000000e-02,6.013564000000000e-03,-8.211354166533927e-05,1.449125373608013e-03,-1.510886610755851e+05,5.870222077981059e+03,1.527521530353684e+04,1.599044083541553e+05,
210,4.061722000000000e-02,5.892974000000000e-03,-8.241133736141946e-05,1.528569417062286e-03,-1.444547098885957e+05,5.470676012189107e+03,1.463694068911453e+04,1.527566085917262e+05,
211,4.680344000000000e-02,5.769145000000000e-03,-8.259139357644933e-05,1.609001979833947e-03,-1.381041111304422e+05,5.355627235208682e+03,1.409091232313610e+04,1.462016134395727e+05,
212,5.295731000000000e-02,5.642539000000000e-03,-8.266190137422708e-05,1.690319899425928e-03,-1.320502792672036e+05,5.407705036779583e+03,1.354743791530503e+04,1.401029255411544e+05,
213,5.907970000000000e-02,5.513740000000000e-03,-8.263322024152554e-05,1.772482594796087e-03,-1.262802098341705e+05,5.224839539453839e+03,1.294743144566500e+04,1.340303023010848e+05,
214,6.516779000000000e-02,5.382904000000000e-03,-8.250770110538238e-05,1.855404490566483e-03,-1.207422292406835e+05,4.761798447217395e+03,1.236857559398855e+04,1.279186757857594e+05,
215,7.121877000000000e-02,5.250188000000000e-03,-8.228812035818842e-05,1.939002801003285e-03,-1.153933065825059e+05,4.421269710674440e+03,1.184749307074339e+04,1.221351098601855e+05,
216,7.721327000000000e-02,5.115249000000000e-03,-8.196758433721387e-05,2.022959971842431e-03,-1.102607977984428e+05,4.436848823398351e+03,1.143825943291587e+04,1.169567666106049e+05,
217,8.316086000000000e-02,4.978890000000000e-03,-8.156303631802172e-05,2.107356339234512e-03,-1.053627999375345e+05,4.482148222840716e+03,1.096758979846202e+04,1.120136810407766e+05,
218,8.905962000000001e-02,4.841294000000000e-03,-8.107829115387766e-05,2.192115379347544e-03,-1.006825371253881e+05,4.173151352042406e+03,1.045675405395504e+04,1.069209531731530e+05,
219,9.490684000000001e-02,4.702608000000000e-03,-8.051549346125105e-05,2.277152981547199e-03,-9.615476805839340e+04,3.684186089802231e+03,9.974613131145878e+03,1.018125158999109e+05,
220,1.006927000000000e-01,4.562897000000000e-03,-7.987493059840421e-05,2.362281251711355e-03,-9.175900303712279e+04,3.466701215480456e+03,9.567367557041602e+03,9.712915544927998e+04,
221,1.064041000000000e-01,4.422327000000000e-03,-7.915902956171568e-05,2.447256183024213e-03,-8.753353750880218e+04,3.554385090520177e+03,9.225313756950452e+03,9.293780339085305e+04,
222,1.120528000000000e-01,4.281275000000000e-03,-7.837889611398018e-05,2.532200808780086e-03,-8.350286757151800e+04,3.497014002862735e+03,8.811130320034808e+03,8.876667992001738e+04,
223,1.176359000000000e-01,4.139882000000000e-03,-7.753705309309462e-05,2.617025219020911e-03,-7.962893954521914e+04,3.082723505453509e+03,8.381206272527405e+03,8.439311393080966e+04,
224,1.231511000000000e-01,3.998286000000000e-03,-7.663590754602894e-05,2.701651464434334e-03,-7.585171620639364e+04,2.654841223836144e+03,7.967719783156905e+03,8.010753893184841e+04,
225,1.285761000000000e-01,3.856682000000000e-03,-7.567555173335484e-05,2.785690536005740e-03,-7.217481326523438e+04,2.562145448946941e+03,7.657384726554803e+03,7.628994141593728e+04,
226,1.339162000000000e-01,3.715314000000000e-03,-7.466392789732106e-05,2.869173285041734e-03,-6.864148946726677e+04,2.620538127429658e+03,7.343893466644414e+03,7.275993170629673e+04,
227,1.391778000000000e-01,3.574319000000000e-03,-7.360654724370742e-05,2.952152099110569e-03,-6.526347489848718e+04,2.420758985010567e+03,6.982314720864524e+03,6.910981400525421e+04,
228,1.443584000000000e-01,3.433830000000000e-03,-7.250581634585993e-05,3.034544395478173e-03,-6.198730912653729e+04,1.986692301741663e+03,6.621220955239598e+03,6.533020072292641e+04,
229,1.494538000000000e-01,3.293997000000000e-03,-7.136446225747031e-05,3.116241706952835e-03,-5.877886185038091e+04,1.677748373600116e+03,6.257735056599746e+03,6.173847027525672e+04,
230,1.544304000000000e-01,3.155327000000000e-03,-7.018580941347543e-05,3.196657273856661e-03,-5.565891243810665e+04,1.636936296522246e+03,6.019073870761855e+03,5.854682983106966e+04,
231,1.593162000000000e-01,3.017718000000000e-03,-6.897659606137918e-05,3.276194521356623e-03,-5.265900200865351e+04,1.584458250556146e+03,5.720893041702545e+03,5.543705845074088e+04,
232,1.641087000000000e-01,2.881302000000000e-03,-6.773983083302848e-05,3.354770437683102e-03,-4.977190800113597e+04,1.290332177768702e+03,5.409543649302192e+03,5.219583337837389e+04,
233,1.688059000000000e-01,2.746206000000000e-03,-6.647822457337161e-05,3.432311945893274e-03,-4.695285790022133e+04,9.262083502820626e+02,5.087295625722985e+03,4.894821030593553e+04,
234,1.733892000000000e-01,2.612831000000000e-03,-6.519626385739877e-05,3.508469950402812e-03,-4.419520083545797e+04,7.262031764883787e+02,4.805519109961703e+03,4.593805170084316e+04,
235,1.778487000000000e-01,2.481517000000000e-03,-6.389983509709337e-05,3.583034149558667e-03,-4.151971620093843e+04,6.550084612898265e+02,4.575403268905249e+03,4.315605010455892e+04,
236,1.822038000000000e-01,2.352065000000000e-03,-6.259135856787408e-05,3.656285698633664e-03,-3.893983423826980e+04,4.899583509778745e+02,4.308383009360729e+03,4.036034192437526e+04,
237,1.864526000000000e-01,2.224602000000000e-03,-6.127383459029906e-05,3.728154102063590e-03,-3.643630199109223e+04,1.874094782443764e+02,4.038567685949736e+03,3.750381790705058e+04,
238,1.905931000000000e-01,2.099252000000000e-03,-5.995027463110859e-05,3.798568170245550e-03,-3.399498412553185e+04,-9.761407896905212e+01,3.737780325605228e+03,3.471189570051654e+04,
239,1.945892000000000e-01,1.976893000000000e-03,-5.863044828260906e-05,3.866873082051653e-03,-3.161754732497330e+04,-2.648516600530920e+02,3.524236279238724e+03,3.213522196694331e+04,
240,1.984619000000000e-01,1.857234000000000e-03,-5.731536522757139e-05,3.933386105203835e-03,-2.930872006970069e+04,-3.932809550963131e+02,3.296762352062907e+03,2.965766658411127e+04,
241,2.022186000000000e-01,1.740213000000000e-03,-5.600685358295271e-05,3.998197629433664e-03,-2.707372041744381e+04,-6.178370185377112e+02,3.055068884117954e+03,2.715230284825467e+04,
242,2.058574000000000e-01,1.625952000000000e-03,-5.470791835169564e-05,4.061240510095741e-03,-2.490076281341165e+04,-9.040899223507955e+02,2.806489410226420e+03,2.464438761826772e+04,
243,2.093693000000000e-01,1.514757000000000e-03,-5.342363612275377e-05,4.122324702230793e-03,-2.279304070324877e+04,-1.148341050237244e+03,2.542022237266820e+03,2.223377006465870e+04,
244,2.127198000000000e-01,1.407634000000000e-03,-5.216694970658974e-05,4.180813461812939e-03,-2.074756815483900e+04,-1.332724649567967e+03,2.356603240626701e+03,1.997875030298677e+04,
245,2.159455000000000e-01,1.303769000000000e-03,-5.093193986888049e-05,4.237310734609622e-03,-1.876017914645809e+04,-1.529141858723011e+03,2.132678395694040e+03,1.775111023483199e+04,
246,2.190452000000000e-01,1.203278000000000e-03,-4.972171393314214e-05,4.291765320042848e-03,-1.683634421528194e+04,-1.785804859780354e+03,1.908470334135031e+03,1.552700135108502e+04,
247,2.220172000000000e-01,1.106273000000000e-03,-4.853923605849943e-05,4.344118496829742e-03,-1.498285106079313e+04,-2.058417485411037e+03,1.667127316939873e+03,1.334759293685616e+04,
248,2.248340000000000e-01,1.013627000000000e-03,-4.739653592485072e-05,4.393856843150862e-03,-1.319756176748784e+04,-2.290164229268321e+03,1.455610446057174e+03,1.128922176854721e+04,
249,2.274956000000000e-01,9.254735000000000e-04,-4.629752291116791e-05,4.440951748559124e-03,-1.149442341463721e+04,-2.535157211970105e+03,1.263591251375879e+03,9.308872235263927e+03,
250,2.300241000000000e-01,8.412482000000000e-04,-4.523740666479901e-05,4.485769129363533e-03,-9.868317387989315e+03,-2.760908944996911e+03,1.057388499273300e+03,7.415358152449649e+03,
251,2.324184000000000e-01,7.610472000000000e-04,-4.421901448385852e-05,4.528267396679365e-03,-8.303197663073128e+03,-2.945617760931427e+03,8.487806241284356e+02,5.620086885397423e+03,
252,2.346773000000000e-01,6.849677000000000e-04,-4.324499377939137e-05,4.568404934865069e-03,-6.883304993450487e+03,-3.328937662948592e+03,6.471540134067662e+02,3.782692214337973e+03,
253,2.367526000000000e-01,6.146510000000000e-04,-4.233774260327011e-05,4.605306938118136e-03,-5.580227493600893e+03,-3.660998121759782e+03,4.848557366470553e+02,2.150298054497528e+03,
254,2.386838000000000e-01,5.489638999999999e-04,-4.148508209907386e-05,4.639660046911293e-03,-4.351035742784865e+03,-3.779199120109637e+03,3.022977733142815e+02,8.321856151338483e+02,
255,2.404756000000000e-01,4.877134000000000e-04,-4.068539313257446e-05,4.671535492295329e-03,-3.278120002336477e+03,-4.064643731256390e+03,1.351127866743289e+02,8.316498281402420e+02,
256,2.421274000000000e-01,4.309143000000000e-04,-3.993966012000012e-05,4.700913617385130e-03,-2.341715586489532e+03,-4.405031276822092e+03,-5.327440716904960e+00,2.063343200844420e+03,
257,2.436242000000000e-01,3.790743000000000e-04,-3.925543283707119e-05,4.727521875461489e-03,-1.536331824477080e+03,-4.631472001197237e+03,-1.006905074733770e+02,3.101684546617897e+03,
258,2.449378000000000e-01,3.338484000000000e-04,-3.865852075736051e-05,4.750856823427607e-03,-9.530183856323550e+02,-4.934426243177839e+03,-2.115036865092353e+02,4.003816150343682e+03,
259,2.461073000000000e-01,2.940091000000000e-04,-3.813393600462850e-05,4.771614429211791e-03,-5.808940241124814e+02,-5.113442187295810e+03,-2.697159301871222e+02,4.564534979991214e+03,
260,2.471341000000000e-01,2.585430000000000e-04,-3.766455722278508e-05,4.789823026224809e-03,-3.653177673435908e+02,-5.124951693530488e+03,-2.816611982354687e+02,4.792853767190802e+03,
261,2.480196000000000e-01,2.264238000000000e-04,-3.723262869378672e-05,4.805512527332650e-03,-4.340915124461075e+02,-5.811916422169917e+03,-4.536436334464431e+02,5.453821682482097e+03,
262,2.487303000000000e-01,1.979354000000000e-04,-3.683795552792427e-05,4.818096423577564e-03,-5.461823611414391e+02,-5.348938850315958e+03,-2.573597047068195e+02,4.830259409673054e+03,
263,2.492635000000000e-01,1.816620000000000e-04,-3.663281780323907e-05,4.827531690988010e-03,-1.438056522391786e+03,-4.847964340645909e+03,-3.449015551065698e+02,3.478979686610761e+03,
264,2.496380000000000e-01,1.777096000000000e-04,-3.662171182213631e-05,4.834156535911416e-03,-2.643621945244774e+03,-2.897292226075821e+03,4.051724358586862e+02,8.491215593161828e+02,
265,2.498726000000000e-01,1.756194000000000e-04,-3.662240300340089e-05,4.838307574326709e-03,-4.230348275411956e+03,3.052582999780286e+03,2.146692429278232e+03,8.454243993572412e+03,
266,2.500714000000000e-01,1.255838000000000e-04,-3.577104447516484e-05,4.841830402486447e-03,-4.965784695155882e+03,2.723091271478598e+03,3.629572753730676e+03,1.057421425585777e+04,
267,-1.495276000000000e-01,3.589350000000000e-03,0.000000000000000e+00,0.000000000000000e+00,-3.363480846754474e+05,-1.175827640541603e+05,1.033922677894339e+05,3.010284200222673e+05,
268,-1.444322000000000e-01,3.622670000000000e-03,-2.148355140147188e-06,2.037317758875111e-06,-3.214415851197492e+05,-3.093548951635743e+04,5.785508172733453e+04,3.127021482328403e+05,
269,-1.392533000000000e-01,3.652275000000000e-03,-4.601229888013122e-06,8.681371692617749e-06,-3.241533062632079e+05,9.324691757289000e+03,8.579796574109569e+04,3.750369833296437e+05,
270,-1.339933000000000e-01,3.678174000000000e-03,-7.111449486376445e-06,1.911397121854776e-05,-3.127069033300508e+05,1.462996694429601e+04,8.274081034186907e+04,3.667882133126979e+05,
271,-1.286547000000000e-01,3.700379000000000e-03,-9.527338344140843e-06,3.302079471401338e-05,-2.933802821072345e+05,1.250891006715863e+04,7.613048268582302e+04,3.416893317986507e+05,
272,-1.232297000000000e-01,3.718390000000000e-03,-1.182936040368607e-05,5.034083069710301e-05,-2.744369025666700e+05,1.169789220946313e+04,7.044643012599309e+04,3.189418737819880e+05,
273,-1.177160000000000e-01,3.731885000000000e-03,-1.403520199716254e-05,7.104797753313034e-05,-2.581505489627761e+05,1.103137850048109e+04,6.567828730553188e+04,2.995220522205105e+05,
274,-1.121342000000000e-01,3.741777000000000e-03,-1.614826956205432e-05,9.501740315508768e-05,-2.434598917464938e+05,1.063184740482710e+04,6.163942765393385e+04,2.824186397371128e+05,
275,-1.064868000000000e-01,3.748100000000000e-03,-1.817369246052255e-05,1.221748244626933e-04,-2.299794078340033e+05,1.044151012365886e+04,5.795396334316104e+04,2.669023515451424e+05,
276,-1.007766000000000e-01,3.750890000000000e-03,-2.011455961615896e-05,1.524429268568499e-04,-2.174578860249592e+05,1.027281099229886e+04,5.457828915200632e+04,2.525399551576072e+05,
277,-9.499069000000000e-02,3.749233000000000e-03,-2.197208136806724e-05,1.858388479629980e-04,-2.057984668048272e+05,9.944510841940066e+03,5.129013125902617e+04,2.388885569929336e+05,
278,-8.914457000000001e-02,3.743841000000000e-03,-2.374611315051874e-05,2.222278406401055e-04,-1.949031889967571e+05,9.584616764915269e+03,4.833446462604524e+04,2.261860839838939e+05,
279,-8.324681000000000e-02,3.735113000000000e-03,-2.543894177975314e-05,2.615007019172008e-04,-1.847436763943250e+05,9.340486924531000e+03,4.565981390717426e+04,2.144946080332359e+05,
280,-7.730015000000000e-02,3.723105000000000e-03,-2.705315610009428e-05,3.035804152288355e-04,-1.752685127842526e+05,9.185122556043265e+03,4.316775817704001e+04,2.036589427802679e+05,
281,-7.130565000000000e-02,3.707751000000000e-03,-2.859034262542083e-05,3.484027941970848e-04,-1.663867933995698e+05,9.002071696554563e+03,4.085203581275915e+04,1.934859408843297e+05,
282,-6.525549999999999e-02,3.688218000000000e-03,-3.004754529503732e-05,3.959785210484504e-04,-1.580680016206392e+05,8.724309979863528e+03,3.859256312763673e+04,1.837857963066834e+05,
283,-5.916815000000000e-02,3.665672000000000e-03,-3.142999626832951e-05,4.461151096128701e-04,-1.502421445095786e+05,8.457698528671652e+03,3.658013028568346e+04,1.747514346357007e+05,
284,-5.304641000000000e-02,3.640182000000000e-03,-3.273972466743232e-05,4.987342711788279e-04,-1.429031174490722e+05,8.239156220678340e+03,3.470967438363679e+04,1.663220757245836e+05,
285,-4.689310000000000e-02,3.611819000000000e-03,-3.397872846689903e-05,5.537576352791786e-04,-1.360059869720619e+05,8.050830927899988e+03,3.296354806295088e+04,1.584258463353018e+05,
286,-4.070687000000000e-02,3.580180000000000e-03,-3.514539530190554e-05,6.111462979778123e-04,-1.295160161677834e+05,7.867429982010101e+03,3.129842335498360e+04,1.509721050195179e+05,
287,-3.449269000000000e-02,3.545355000000000e-03,-3.624060258989370e-05,6.708058520470037e-04,-1.233974038505239e+05,7.676656440175270e+03,2.972938614104830e+04,1.439296872864805e+05,
288,-2.825901000000000e-02,3.507980000000000e-03,-3.726977613031084e-05,7.326047109210525e-04,-1.176153918123018e+05,7.453822204853975e+03,2.827760724330175e+04,1.372617957790690e+05,
289,-2.200871000000000e-02,3.468136000000000e-03,-3.823444788338252e-05,7.964623543008114e-04,-1.121570361387492e+05,7.196273914964182e+03,2.691568361298233e+04,1.309313893540984e+05,
290,-1.574467000000000e-02,3.425902000000000e-03,-3.913627851055515e-05,8.622986041270885e-04,-1.069959310380252e+05,6.986946237734572e+03,2.564400032171899e+04,1.249902209057261e+05,
291,-9.468287000000001e-03,3.380679000000000e-03,-3.997030748108583e-05,9.300493847709938e-04,-1.021289696740748e+05,6.863803995098462e+03,2.442931823057079e+04,1.194428359883573e+05,
292,-3.186947000000000e-03,3.333197000000000e-03,-4.074422347352368e-05,9.995853348478286e-04,-9.751436348450770e+04,6.740835181981099e+03,2.328312137021873e+04,1.141821413880051e+05,
293,3.095891000000000e-03,3.283675000000000e-03,-4.146071181197190e-05,1.070817320955240e-03,-9.313119898677900e+04,6.488948822782014e+03,2.219192260138866e+04,1.090600731917180e+05,
294,9.377325000000001e-03,3.232197000000000e-03,-4.212078808892409e-05,1.143662913815167e-03,-8.896539036386569e+04,6.172350386054110e+03,2.117162274041326e+04,1.041352013146779e+05,
295,1.565371000000000e-02,3.178708000000000e-03,-4.272440541366012e-05,1.218031210726241e-03,-8.501395319189157e+04,5.991965476981733e+03,2.021664894270533e+04,9.958377784888427e+04,
296,2.191793000000000e-02,3.122975000000000e-03,-4.326930802771441e-05,1.293787582104448e-03,-8.127680605247506e+04,5.960095232565882e+03,1.931859954652463e+04,9.541022010021730e+04,
297,2.816851000000000e-02,3.065639000000000e-03,-4.376425434877168e-05,1.370863117522315e-03,-7.771756291587208e+04,5.843371991990208e+03,1.843569870323166e+04,9.133416550985370e+04,
298,3.440257000000000e-02,3.006782000000000e-03,-4.420997523803686e-05,1.449172919371917e-03,-7.431500695089715e+04,5.508459621460446e+03,1.759122286073000e+04,8.723296568712869e+04,
299,4.061722000000000e-02,2.946487000000000e-03,-4.460726188892106e-05,1.528633159900625e-03,-7.106184474622796e+04,5.170498008958049e+03,1.680246345418906e+04,8.331063074099003e+04,
300,4.680344000000000e-02,2.884573000000000e-03,-4.495369538926107e-05,1.609079670439451e-03,-6.797337017811689e+04,5.079637291844831e+03,1.608255496953402e+04,7.982065019654135e+04,
301,5.295731000000000e-02,2.821270000000000e-03,-4.525356809695223e-05,1.690409876218732e-03,-6.504213278772983e+04,5.108997532868561e+03,1.538548822048830e+04,7.660309443089565e+04,
302,5.907970000000000e-02,2.756870000000000e-03,-4.551169465703940e-05,1.772584708997508e-03,-6.223738997398213e+04,4.920492827737834e+03,1.468242674285372e+04,7.329717486129064e+04,
303,6.516779000000000e-02,2.691452000000000e-03,-4.572825935215825e-05,1.855518670343655e-03,-5.953618253428017e+04,4.501097590092282e+03,1.401858425279138e+04,6.990605169466940e+04,
304,7.121877000000000e-02,2.625094000000000e-03,-4.590422961931973e-05,1.939127517284918e-03,-5.694193833006443e+04,4.209393797691445e+03,1.338392738190215e+04,6.675330306176038e+04,
305,7.721327000000000e-02,2.557624000000000e-03,-4.603570029108290e-05,2.023092972795594e-03,-5.447927438855742e+04,4.226194046991441e+03,1.284333810778486e+04,6.407914917694162e+04,
306,8.316086000000000e-02,2.489445000000000e-03,-4.613180121404844e-05,2.107496627333092e-03,-5.213482047639979e+04,4.245380814732012e+03,1.227284276664385e+04,6.149160736171716e+04,
307,8.905962000000001e-02,2.420647000000000e-03,-4.619356955488723e-05,2.192263204592229e-03,-4.987939739451701e+04,3.944733800688836e+03,1.170393094534224e+04,5.869382503476912e+04,
308,9.490684000000001e-02,2.351304000000000e-03,-4.622102721402836e-05,2.277307961559958e-03,-4.769108997642490e+04,3.498386294069066e+03,1.116345380680730e+04,5.584669448082265e+04,
309,1.006927000000000e-01,2.281449000000000e-03,-4.621374862215807e-05,2.362441589940431e-03,-4.558450770268138e+04,3.309766986826953e+03,1.066631885331983e+04,5.334539838576368e+04,
310,1.064041000000000e-01,2.211164000000000e-03,-4.617267637352702e-05,2.447420106432970e-03,-4.358097315646173e+04,3.385275454725653e+03,1.022918590246777e+04,5.122863930963658e+04,
311,1.120528000000000e-01,2.140638000000000e-03,-4.610385041966553e-05,2.532367971025715e-03,-4.166843985769788e+04,3.312476620423400e+03,9.754513547433933e+03,4.902942978864849e+04,
312,1.176359000000000e-01,2.069941000000000e-03,-4.600740013123696e-05,2.617195845985556e-03,-3.981527822760020e+04,2.915392792038033e+03,9.291203336019149e+03,4.659630976282954e+04,
313,1.231511000000000e-01,1.999143000000000e-03,-4.588368847591997e-05,2.701824777474114e-03,-3.800564444381034e+04,2.519468956419497e+03,8.830725084495778e+03,4.420646602221511e+04,
314,1.285761000000000e-01,1.928341000000000e-03,-4.573154201969689e-05,2.785864863978623e-03,-3.626042178048273e+04,2.437989281237781e+03,8.450167592046304e+03,4.222781486220393e+04,
315,1.339162000000000e-01,1.857657000000000e-03,-4.555547316230067e-05,2.869347561051335e-03,-3.459648763512986e+04,2.483511355034684e+03,8.073198141960729e+03,4.044295288512001e+04,
316,1.391778000000000e-01,1.787160000000000e-03,-4.535814681882049e-05,2.952326321974757e-03,-3.300078587773181e+04,2.282472159713183e+03,7.677375735783388e+03,3.847956198413008e+04,
317,1.443584000000000e-01,1.716915000000000e-03,-4.513968056014001e-05,3.034718477258193e-03,-3.144149229164112e+04,1.864457130658579e+03,7.292615847773757e+03,3.635952764453342e+04,
318,1.494538000000000e-01,1.646998000000000e-03,-4.490075005683696e-05,3.116414706345652e-03,-2.991310006900284e+04,1.573196290871695e+03,6.886953379449787e+03,3.436724262818750e+04,
319,1.544304000000000e-01,1.577663000000000e-03,-4.464091106133117e-05,3.196828015725429e-03,-2.843820368328820e+04,1.535605301106650e+03,6.598992722069988e+03,3.275081746791552e+04,
320,1.593162000000000e-01,1.508859000000000e-03,-4.436527768844662e-05,3.276362512578945e-03,-2.702634552438611e+04,1.476830542390416e+03,6.262295516932505e+03,3.113352576338302e+04,
321,1.641087000000000e-01,1.440651000000000e-03,-4.407455816466732e-05,3.354935668707718e-03,-2.566300859726773e+04,1.188738968256668e+03,5.929080014064810e+03,2.935357400003237e+04,
322,1.688059000000000e-01,1.373103000000000e-03,-4.376932141672918e-05,3.432474058926530e-03,-2.432376678512542e+04,8.346370576731558e+02,5.583525126786618e+03,2.752541180951108e+04,
323,1.733892000000000e-01,1.306416000000000e-03,-4.345027301798996e-05,3.508628180396163e-03,-2.301391739318163e+04,6.430240779603266e+02,5.268047901248607e+03,2.589710784100100e+04,
324,1.778487000000000e-01,1.240759000000000e-03,-4.311955143676167e-05,3.583187880359698e-03,-2.175018014998190e+04,5.730420154665767e+02,5.005779750788291e+03,2.446543626223694e+04,
325,1.822038000000000e-01,1.176033000000000e-03,-4.277943430522621e-05,3.656434728137840e-03,-2.053521085954302e+04,4.090853263005127e+02,4.715181637525050e+03,2.296944261883064e+04,
326,1.864526000000000e-01,1.112301000000000e-03,-4.243073960222840e-05,3.728298309725123e-03,-1.935319334183863e+04,1.111559988764006e+02,4.428152409923810e+03,2.138445768120973e+04,
327,1.905931000000000e-01,1.049626000000000e-03,-4.207441212174231e-05,3.798707204279840e-03,-1.819552831678562e+04,-1.690275375817483e+02,4.102808897097411e+03,1.980623370878584e+04,
328,1.945892000000000e-01,9.884466000000000e-04,-4.171241771215358e-05,3.867006530810853e-03,-1.706982437324495e+04,-3.299776762423089e+02,3.867817321177810e+03,1.844078389763198e+04,
329,1.984619000000000e-01,9.286170000000000e-04,-4.134659693021951e-05,3.933513704083257e-03,-1.598133844565594e+04,-4.577822103386969e+02,3.619306979023308e+03,1.712829034739556e+04,
330,2.022186000000000e-01,8.701066000000000e-04,-4.097807120097970e-05,3.998319308451233e-03,-1.493052014760953e+04,-6.790566114631993e+02,3.361162971450974e+03,1.575734365318980e+04,
331,2.058574000000000e-01,8.129762000000000e-04,-4.060777632406989e-05,4.061356172383616e-03,-1.390721222327413e+04,-9.622429620193012e+02,3.097449018184184e+03,1.435092299665193e+04,
332,2.093693000000000e-01,7.573787000000000e-04,-4.023723558250965e-05,4.122434169451540e-03,-1.291101920581506e+04,-1.204110077026849e+03,2.811294385160438e+03,1.298711768753341e+04,
333,2.127198000000000e-01,7.038169000000000e-04,-3.986997745949503e-05,4.180916643627538e-03,-1.194534255603775e+04,-1.383986349750133e+03,2.614816623038899e+03,1.178521568765597e+04,
334,2.159455000000000e-01,6.518846000000000e-04,-3.950563462988033e-05,4.237407593604617e-03,-1.100944738181402e+04,-1.578927924047796e+03,2.376189155859065e+03,1.056029340790284e+04,
335,2.190452000000000e-01,6.016389000000000e-04,-3.914533230561662e-05,4.291855889748390e-03,-1.010373944496306e+04,-1.832541449309324e+03,2.138735030586997e+03,9.311791793610199e+03,
336,2.220172000000000e-01,5.531363000000000e-04,-3.879011612271182e-05,4.344202794095836e-03,-9.228486324896869e+03,-2.103186891942085e+03,1.881923112338235e+03,8.058314365441267e+03,
337,2.248340000000000e-01,5.068136000000000e-04,-3.844355566763783e-05,4.393934932784758e-03,-8.379497601933766e+03,-2.333146797582195e+03,1.657963767073142e+03,6.895921509196022e+03,
338,2.274956000000000e-01,4.627367000000000e-04,-3.810733485923456e-05,4.441023771233979e-03,-7.572443289262407e+03,-2.574126394829703e+03,1.454288576962142e+03,5.782991685754156e+03,
339,2.300241000000000e-01,4.206241000000000e-04,-3.778061046537242e-05,4.485835189546632e-03,-6.802434935130083e+03,-2.796441249408152e+03,1.233836914656771e+03,4.705039801948858e+03,
340,2.324184000000000e-01,3.805236000000000e-04,-3.746452635388728e-05,4.528327627703814e-03,-6.049320572440059e+03,-2.982237100731155e+03,1.014265231721333e+03,3.677218631458410e+03,
341,2.346773000000000e-01,3.424839000000000e-04,-3.716005652633867e-05,4.568459605958740e-03,-5.376611765783930e+03,-3.359764191318717e+03,7.944166465294592e+02,2.567501776388608e+03,
342,2.367526000000000e-01,3.073255000000000e-04,-3.687426171358870e-05,4.605356342126763e-03,-4.755175848074125e+03,-3.688483832021910e+03,6.195620492234247e+02,1.635010822123591e+03,
343,2.386838000000000e-01,2.744819000000000e-04,-3.660420281064088e-05,4.639704363233004e-03,-4.144469826601911e+03,-3.809891738678188e+03,4.267600706843391e+02,9.167546720037503e+02,
344,2.404756000000000e-01,2.438567000000000e-04,-3.634932345031706e-05,4.671575053865326e-03,-3.606108732131383e+03,-4.088590792209058e+03,2.466693824354650e+02,6.900522264446147e+02,
345,2.421274000000000e-01,2.154571000000000e-04,-3.610986095221137e-05,4.700948727133399e-03,-3.113214586391535e+03,-4.424392838324920e+03,9.325887421904645e+01,1.324378072464773e+03,
346,2.436242000000000e-01,1.895372000000000e-04,-3.588833586342074e-05,4.727552846035534e-03,-2.653907262914205e+03,-4.651607827929086e+03,-1.854568075764200e+01,1.998044873510060e+03,
347,2.449378000000000e-01,1.669242000000000e-04,-3.569536649119480e-05,4.750884169052223e-03,-2.294770440781464e+03,-4.953266916237480e+03,-1.441210575826835e+02,2.674076855097300e+03,
348,2.461073000000000e-01,1.470045000000000e-04,-3.552661361007409e-05,4.771638529178501e-03,-2.010074062281632e+03,-5.110692525127690e+03,-2.219095571747779e+02,3.132221297801909e+03,
349,2.471341000000000e-01,1.292715000000000e-04,-3.537374607196517e-05,4.789844206509475e-03,-1.748685127427732e+03,-5.160824575935278e+03,-2.803988523504684e+02,3.457916957021846e+03,
350,2.480196000000000e-01,1.132119000000000e-04,-3.522793477273352e-05,4.805531154561976e-03,-1.657147178201829e+03,-5.800395680075427e+03,-3.676718808340904e+02,4.207996981474930e+03,
351,2.487303000000000e-01,9.896769000000000e-05,-3.508659749975610e-05,4.818112620047307e-03,-1.472452980095409e+03,-5.327176780928390e+03,-3.443476414487294e+02,3.915762604320323e+03,
352,2.492635000000000e-01,9.083101000000000e-05,-3.502592322778442e-05,4.827546466290009e-03,-2.094662509680237e+03,-5.034421378843273e+03,-5.336386718532890e+02,3.127501101072884e+03,
353,2.496380000000000e-01,8.885479000000000e-05,-3.505004706141053e-05,4.834170605046371e-03,-3.811291411632245e+03,-2.221202087614923e+03,-9.502798920726399e+00,1.590202902494892e+03,
354,2.498726000000000e-01,8.780969999999999e-05,-3.506999028534270e-05,4.838320613334288e-03,-6.344555921546531e+03,3.978612880992608e+03,1.148312924500426e+03,1.057555220383391e+04,
355,2.500714000000000e-01,4.772185000000000e-05,-3.439514601114692e-05,4.841842231737831e-03,-9.621037733469193e+03,-5.276178825334312e+02,1.971844255197132e+03,9.911758857660345e+03,
356,-1.495276000000000e-01,0.000000000000000e+00,0.000000000000000e+00,0.000000000000000e+00,3.695170432210682e+03,1.343942737464629e+03,9.309851503937485e+04,1.862118747067956e+05,
357,-1.444322000000000e-01,0.000000000000000e+00,2.362488834487717e-08,1.834448235674942e-06,3.852268418600584e+03,4.459174599316759e+03,5.437137774947325e+04,1.087444490933484e+05,
358,-1.392533000000000e-01,0.000000000000000e+00,3.214871578192649e-08,8.359336413103303e-06,3.191008713210609e+03,6.783868730870847e+03,9.109602985294297e+04,1.822274821836147e+05,
359,-1.339933000000000e-01,0.000000000000000e+00,2.784146573965830e-08,1.877766418156915e-05,2.903446394319904e+03,7.986432930875382e+03,9.180858319552262e+04,1.836875078648725e+05,
360,-1.286547000000000e-01,0.000000000000000e+00,1.425956513135027e-08,3.270946490331253e-05,2.960931419132663e+03,8.403920620086046e+03,8.428809464416184e+04,1.686640380354224e+05,
361,-1.232297000000000e-01,0.000000000000000e+00,-7.252806889109815e-09,5.005665907126581e-05,3.154961853360436e+03,8.400835791093185e+03,7.764970182761094e+04,1.553879788434039e+05,
362,-1.177160000000000e-01,0.000000000000000e+00,-3.733122147916956e-08,7.078817689667783e-05,3.345982728205709e+03,8.242501883589144e+03,7.217562799090332e+04,1.444342791838700e+05,
363,-1.121342000000000e-01,0.000000000000000e+00,-7.768323635078410e-08,9.478079789723977e-05,3.481802843274886e+03,8.139430319094685e+03,6.760955624296388e+04,1.352993047845609e+05,
364,-1.064868000000000e-01,0.000000000000000e+00,-1.304702064756312e-07,1.219602391401782e-04,3.568180828784753e+03,8.136763535098409e+03,6.348326668313320e+04,1.270487014612572e+05,
365,-1.007766000000000e-01,0.000000000000000e+00,-1.973516495210762e-07,1.522501629263284e-04,3.629037256206650e+03,8.116438540366635e+03,5.974622851952576e+04,1.195766869398657e+05,
366,-9.499069000000000e-02,0.000000000000000e+00,-2.793864461287966e-07,1.856683910546239e-04,3.687694862049798e+03,7.993676199220174e+03,5.612952669853809e+04,1.123416064727742e+05,
367,-8.914457000000001e-02,0.000000000000000e+00,-3.770512179447398e-07,2.220796140212936e-04,3.742840996929440e+03,7.838009992019660e+03,5.284907793166131e+04,1.057774577214143e+05,
368,-8.324681000000000e-02,0.000000000000000e+00,-4.911962842858026e-07,2.613738950228219e-04,3.783401282667463e+03,7.743042978009312e+03,4.986455259570152e+04,9.980768099015938e+04,
369,-7.730015000000000e-02,0.000000000000000e+00,-6.228997125151935e-07,3.034742466616770e-04,3.805336127387855e+03,7.691587914547204e+03,4.710038017844376e+04,9.428088992350969e+04,
370,-7.130565000000000e-02,0.000000000000000e+00,-7.729135225725146e-07,3.483169673896439e-04,3.815834882792782e+03,7.606493341099492e+03,4.454559476376040e+04,8.917179566979778e+04,
371,-6.525549999999999e-02,0.000000000000000e+00,-9.418705993448948e-07,3.959129541436729e-04,3.824569191927966e+03,7.465547718154176e+03,4.206025095578720e+04,8.419926108038973e+04,
372,-5.916815000000000e-02,0.000000000000000e+00,-1.129662238103629e-06,4.460692885595408e-04,3.827442038370851e+03,7.313615413183848e+03,3.983183462325278e+04,7.973991223105211e+04,
373,-5.304641000000000e-02,0.000000000000000e+00,-1.336684736896203e-06,4.987074346544549e-04,3.817771858915681e+03,7.177084665991291e+03,3.776182281738493e+04,7.559832030212098e+04,
374,-4.689310000000000e-02,0.000000000000000e+00,-1.563354076329021e-06,5.537490274588973e-04,3.789983509232602e+03,7.055427211436740e+03,3.583093801470370e+04,7.173623630095477e+04,
375,-4.070687000000000e-02,0.000000000000000e+00,-1.810199009635673e-06,6.111552310811665e-04,3.747121948133794e+03,6.947116944454045e+03,3.399084051908272e+04,6.805695353710256e+04,
376,-3.449269000000000e-02,0.000000000000000e+00,-2.077411981843384e-06,6.708317145462092e-04,3.696659673602136e+03,6.834145013217912e+03,3.226429662363723e+04,6.460482304540813e+04,
377,-2.825901000000000e-02,0.000000000000000e+00,-2.364737858235613e-06,7.326470234272482e-04,3.643108634090914e+03,6.674223639951812e+03,3.067656172747602e+04,6.142795304954692e+04,
378,-2.200871000000000e-02,0.000000000000000e+00,-2.671923415230071e-06,7.965205718474175e-04,3.581952494044951e+03,6.470681941811408e+03,2.918393669711601e+04,5.843931384254515e+04,
379,-1.574467000000000e-02,0.000000000000000e+00,-2.998933530677628e-06,8.623717616820641e-04,3.502605883603964e+03,6.309502591270973e+03,2.777133208081378e+04,5.561354341613973e+04,
380,-9.468287000000001e-03,0.000000000000000e+00,-3.346228634215027e-06,9.301363137631074e-04,3.403701691860473e+03,6.238127861198946e+03,2.642121737313870e+04,5.291839832821866e+04,
381,-3.186947000000000e-03,0.000000000000000e+00,-3.713762339700385e-06,9.996853443786510e-04,3.296886193010987e+03,6.156007597125389e+03,2.517222664490357e+04,5.042557438694216e+04,
382,3.095891000000000e-03,0.000000000000000e+00,-4.100905867605946e-06,1.070930265218388e-03,3.194327166002266e+03,5.942553538103355e+03,2.400149510070599e+04,4.808159540270235e+04,
383,9.377325000000001e-03,0.000000000000000e+00,-4.506781250782892e-06,1.143788288668033e-03,3.088861971544279e+03,5.667866526166404e+03,2.288609911438385e+04,4.584479681693843e+04,
384,1.565371000000000e-02,0.000000000000000e+00,-4.931232091220170e-06,1.218167622079045e-03,2.962900235922477e+03,5.523915325299462e+03,2.181217945506197e+04,4.369946782979545e+04,
385,2.191793000000000e-02,0.000000000000000e+00,-5.374519450953775e-06,1.293933616659138e-03,2.814354640444095e+03,5.519820372770499e+03,2.081251059989843e+04,4.171285095402052e+04,
386,2.816851000000000e-02,0.000000000000000e+00,-5.836606630072288e-06,1.371018430462889e-03,2.663435783557723e+03,5.424240126615614e+03,1.987226425018342e+04,3.984030103221009e+04,
387,3.440257000000000e-02,0.000000000000000e+00,-6.316164836394453e-06,1.449337662140999e-03,2.524697273300741e+03,5.118871291777141e+03,1.898062165562091e+04,3.804977966524169e+04,
388,4.061722000000000e-02,0.000000000000000e+00,-6.812003849055552e-06,1.528806543639509e-03,2.384799727726758e+03,4.814625813020855e+03,1.810955138160769e+04,3.630051597122458e+04,
389,4.680344000000000e-02,0.000000000000000e+00,-7.323783155909791e-06,1.609259907346114e-03,2.220695465703673e+03,4.748109033135391e+03,1.728744320594079e+04,3.466713991282453e+04,
390,5.295731000000000e-02,0.000000000000000e+00,-7.851963393856284e-06,1.690595777786250e-03,2.035340961123759e+03,4.788983105819136e+03,1.652264625514801e+04,3.315982361461034e+04,
391,5.907970000000000e-02,0.000000000000000e+00,-8.396065619425149e-06,1.772776427108000e-03,1.856480765668754e+03,4.615058564561551e+03,1.579435906773529e+04,3.170893982640783e+04,
392,6.516779000000000e-02,0.000000000000000e+00,-8.954158470701835e-06,1.855716340017186e-03,1.695924770387573e+03,4.220173283868085e+03,1.509530464157408e+04,3.029595219572278e+04,
393,7.121877000000000e-02,0.000000000000000e+00,-9.525183448417943e-06,1.939329904660971e-03,1.533572913471372e+03,3.953034428779419e+03,1.438267511077821e+04,2.886692168196762e+04,
394,7.721327000000000e-02,0.000000000000000e+00,-1.010803047073880e-05,2.023298227365378e-03,1.344428023631983e+03,3.984197888916403e+03,1.375962061627172e+04,2.764556063740765e+04,
395,8.316086000000000e-02,0.000000000000000e+00,-1.070408847317279e-05,2.107704108506889e-03,1.139032470088412e+03,4.008125198518195e+03,1.315104404553688e+04,2.645810898448588e+04,
396,8.905962000000001e-02,0.000000000000000e+00,-1.131191011944588e-05,2.192473368277699e-03,9.471879914725575e+02,3.720243875613653e+03,1.257209259258170e+04,2.529663787072029e+04,
397,9.490684000000001e-02,0.000000000000000e+00,-1.192939189757677e-05,2.277520613136422e-03,7.765327236902458e+02,3.293550353934399e+03,1.199594068408003e+04,2.412355175621587e+04,
398,1.006927000000000e-01,0.000000000000000e+00,-1.255512667600409e-05,2.362655205918628e-03,6.020375717906556e+02,3.121501062648838e+03,1.142816328726395e+04,2.299476811718783e+04,
399,1.064041000000000e-01,0.000000000000000e+00,-1.318846305621515e-05,2.447633236547629e-03,4.026918250805439e+02,3.203832576743323e+03,1.093225108985241e+04,2.204320405651008e+04,
400,1.120528000000000e-01,0.000000000000000e+00,-1.383053072123176e-05,2.532580518117071e-03,1.939392948430121e+02,3.135518174344965e+03,1.043956798516457e+04,2.108533151676359e+04,
401,1.176359000000000e-01,0.000000000000000e+00,-1.447928252324364e-05,2.617408204637784e-03,3.571466465147751e+00,2.749130498491836e+03,9.967739452215297e+03,2.012365308653825e+04,
402,1.231511000000000e-01,0.000000000000000e+00,-1.513293989290658e-05,2.702036350112782e-03,-1.646116308039979e+02,2.367128786664446e+03,9.468895512174924e+03,1.910627222729198e+04,
403,1.285761000000000e-01,0.000000000000000e+00,-1.578885748527724e-05,2.786074212245086e-03,-3.372356141913209e+02,2.296508678063401e+03,9.031149216923930e+03,1.825330747317776e+04,
404,1.339162000000000e-01,0.000000000000000e+00,-1.644807467487132e-05,2.869553858949392e-03,-5.296805092076675e+02,2.345789500910251e+03,8.617487383922089e+03,1.747319899238010e+04,
405,1.391778000000000e-01,0.000000000000000e+00,-1.711056971747184e-05,2.952529746279937e-03,-7.253024419994933e+02,2.150967245374073e+03,8.211777762519065e+03,1.667351502828707e+04,
406,1.443584000000000e-01,0.000000000000000e+00,-1.777432260192782e-05,3.034919099204025e-03,-8.996974577805717e+02,1.739213300217541e+03,7.812847331069193e+03,1.584696133847301e+04,
407,1.494538000000000e-01,0.000000000000000e+00,-1.843781778942655e-05,3.116611746168052e-03,-1.052554544822122e+03,1.457161433881780e+03,7.370388824742826e+03,1.495289938457881e+04,
408,1.544304000000000e-01,0.000000000000000e+00,-1.909670127465160e-05,3.197020480048393e-03,-1.210447006545746e+03,1.428431893225556e+03,7.042204661420034e+03,1.432948944732374e+04,
409,1.593162000000000e-01,0.000000000000000e+00,-1.975448195530025e-05,3.276550087673482e-03,-1.381761697897221e+03,1.372139910363969e+03,6.683279252292779e+03,1.364730230941237e+04,
410,1.641087000000000e-01,0.000000000000000e+00,-2.040971736634216e-05,3.355118483952096e-03,-1.551593218920847e+03,1.089337463007871e+03,6.338623200588678e+03,1.294940505131092e+04,
411,1.688059000000000e-01,0.000000000000000e+00,-2.106084116665654e-05,3.432651896655064e-03,-1.700376265834115e+03,7.393316021516673e+02,5.973266735879719e+03,1.219310610439278e+04,
412,1.733892000000000e-01,0.000000000000000e+00,-2.170467778234916e-05,3.508800410777409e-03,-1.835168449705684e+03,5.547975858817814e+02,5.627464567002914e+03,1.150588403655950e+04,
413,1.778487000000000e-01,0.000000000000000e+00,-2.233960450242556e-05,3.583354027846409e-03,-1.976269050274289e+03,4.904489434024147e+02,5.338204047132888e+03,1.095766341222581e+04,
414,1.822038000000000e-01,0.000000000000000e+00,-2.296777696289855e-05,3.656594719468683e-03,-2.126433797554486e+03,3.303108272138654e+02,5.030472642138008e+03,1.035655416461112e+04,
415,1.864526000000000e-01,0.000000000000000e+00,-2.358789795328102e-05,3.728452142772693e-03,-2.271699509517169e+03,3.440405436033438e+01,4.728658517053867e+03,9.734421355733111e+03,
416,1.905931000000000e-01,0.000000000000000e+00,-2.419879660963575e-05,3.798854639385944e-03,-2.400419210757818e+03,-2.425840023595418e+02,4.382593579848521e+03,9.026890867354114e+03,
417,1.945892000000000e-01,0.000000000000000e+00,-2.479462402620235e-05,3.867147261910253e-03,-2.524050901450226e+03,-3.961730004462586e+02,4.124718420992506e+03,8.519452598112199e+03,
418,1.984619000000000e-01,0.000000000000000e+00,-2.537803750371348e-05,3.933647576703960e-03,-2.652833938016800e+03,-5.219298172448082e+02,3.856239850097282e+03,8.001443338413158e+03,
419,2.022186000000000e-01,0.000000000000000e+00,-2.594946453485113e-05,3.998446345498466e-03,-2.787302689008819e+03,-7.391802677791831e+02,3.582513445618686e+03,7.452007501639959e+03,
420,2.058574000000000e-01,0.000000000000000e+00,-2.650779549143471e-05,4.061476370675428e-03,-2.916401706040499e+03,-1.021569065090007e+03,3.303252587487899e+03,6.872867041067608e+03,
421,2.093693000000000e-01,0.000000000000000e+00,-2.705098715234444e-05,4.122547437435726e-03,-3.032491958209568e+03,-1.260407386971201e+03,2.998427450066184e+03,6.253203372741259e+03,
422,2.127198000000000e-01,0.000000000000000e+00,-2.757316607883519e-05,4.181022971426741e-03,-3.145796497942771e+03,-1.434459943967672e+03,2.785639762699400e+03,5.828192545815490e+03,
423,2.159455000000000e-01,0.000000000000000e+00,-2.807946807449941e-05,4.237507022922013e-03,-3.260139413364483e+03,-1.628559009763340e+03,2.531479853731123e+03,5.319362331407915e+03,
424,2.190452000000000e-01,0.000000000000000e+00,-2.856908283742341e-05,4.291948522393691e-03,-3.373135967862434e+03,-1.879132413927917e+03,2.279724457532500e+03,4.797980932460693e+03,
425,2.220172000000000e-01,0.000000000000000e+00,-2.904112321606012e-05,4.344288715714387e-03,-3.477346289174539e+03,-2.148605640111787e+03,2.008503070544540e+03,4.231062520221024e+03,
426,2.248340000000000e-01,0.000000000000000e+00,-2.949068623095434e-05,4.394014271273294e-03,-3.564482952692093e+03,-2.375232170831609e+03,1.770989706256986e+03,3.736299717745967e+03,
427,2.274956000000000e-01,0.000000000000000e+00,-2.991725597815880e-05,4.441096724296360e-03,-3.653522679056407e+03,-2.613326933348813e+03,1.553748440948045e+03,3.276971782054599e+03,
428,2.300241000000000e-01,0.000000000000000e+00,-3.032391254079642e-05,4.485901913465488e-03,-3.739054157576816e+03,-2.833071881941171e+03,1.318598483543501e+03,2.788478389189851e+03,
429,2.324184000000000e-01,0.000000000000000e+00,-3.071012374245988e-05,4.528388304957690e-03,-3.795403604738947e+03,-3.017319375946588e+03,1.088542749618693e+03,2.311950764632564e+03,
430,2.346773000000000e-01,0.000000000000000e+00,-3.107518528688061e-05,4.568514548501227e-03,-3.871801770057354e+03,-3.392070004815079e+03,8.559596388836328e+02,1.777866749836351e+03,
431,2.367526000000000e-01,0.000000000000000e+00,-3.141084655108713e-05,4.605405883049895e-03,-3.934566003083546e+03,-3.717287704616196e+03,6.676074133997895e+02,1.352778064831883e+03,
432,2.386838000000000e-01,0.000000000000000e+00,-3.172338777059575e-05,4.639748717945767e-03,-3.939653443237071e+03,-3.838638694552973e+03,4.687778290527820e+02,9.429817556546201e+02,
433,2.404756000000000e-01,0.000000000000000e+00,-3.201330451120958e-05,4.671614582662572e-03,-3.935221181395417e+03,-4.112946533473866e+03,2.842866104657072e+02,5.957027852308023e+02,
434,2.421274000000000e-01,0.000000000000000e+00,-3.228010678598526e-05,4.700983758934963e-03,-3.886391946787436e+03,-4.445192495050460e+03,1.239342339164367e+02,6.113074758948030e+02,
435,2.436242000000000e-01,-5.421011000000000e-20,-3.252127173321813e-05,4.727583715606887e-03,-3.772586393322954e+03,-4.671184572380321e+03,4.757490266283526e+00,8.986485532507980e+02,
436,2.449378000000000e-01,0.000000000000000e+00,-3.273224293558220e-05,4.750911406736681e-03,-3.636550067728592e+03,-4.970684409998544e+03,-1.183202930025206e+02,1.354958748511884e+03,
437,2.461073000000000e-01,0.000000000000000e+00,-3.291931453071278e-05,4.771662524981030e-03,-3.438041864012598e+03,-5.119370056832222e+03,-2.067349086253390e+02,1.731421895942007e+03,
438,2.471341000000000e-01,0.000000000000000e+00,-3.308293837580408e-05,4.789865302685004e-03,-3.132836260128301e+03,-5.178604775050025e+03,-2.739939767933990e+02,2.117890368721026e+03,
439,2.480196000000000e-01,0.000000000000000e+00,-3.322327730624146e-05,4.805549711238079e-03,-2.882578008424910e+03,-5.798015971480218e+03,-2.948939003283795e+02,2.974496287815404e+03,
440,2.487303000000000e-01,0.000000000000000e+00,-3.333522953867148e-05,4.818128771974749e-03,-2.413302962683863e+03,-5.340231315915558e+03,-3.890438775107895e+02,3.028585501429028e+03,
441,2.492635000000000e-01,0.000000000000000e+00,-3.341906030338424e-05,4.827561227191704e-03,-2.711955430712523e+03,-5.109667409527183e+03,-5.732039336726294e+02,2.657682022301091e+03,
442,2.496380000000000e-01,0.000000000000000e+00,-3.347837711619913e-05,4.834184559827461e-03,-4.389148355864441e+03,-1.947714880364214e+03,-7.448292841223150e+02,2.860013997384935e+03,
443,2.498726000000000e-01,2.710505000000000e-20,-3.351711079585501e-05,4.838333512329015e-03,-7.184793028823251e+03,4.358366033501864e+03,-6.947023821033291e+02,1.162647697012894e+04,
444,2.500714000000000e-01,1.355253000000000e-20,-3.355143915363250e-05,4.841849564486699e-03,-1.194530508834369e+04,-1.663381759474031e+03,-4.708395417645422e+02,1.032495553681033e+04,
445,-1.495276000000000e-01,-3.589350000000000e-03,0.000000000000000e+00,0.000000000000000e+00,3.433620529609571e+05,1.200704363879935e+05,1.019523232639945e+05,3.023842768853426e+05,
446,-1.444322000000000e-01,-3.622670000000000e-03,2.193962821529420e-06,2.008172506664801e-06,3.290111305260775e+05,4.036145505959450e+04,5.712651014268049e+04,3.104390242724536e+05,
447,-1.392533000000000e-01,-3.652275000000000e-03,4.661343055820455e-06,8.632222012217885e-06,3.304946114455188e+05,4.701538818000925e+03,8.634773208413055e+04,3.687341176462659e+05,
448,-1.339933000000000e-01,-3.678174000000000e-03,7.162062338551423e-06,1.906038308263111e-05,3.186048279406194e+05,1.486529479511039e+03,8.425161463167900e+04,3.591063261640602e+05,
449,-1.286547000000000e-01,-3.700379000000000e-03,9.551338817728232e-06,3.297434804266016e-05,2.994693824478005e+05,4.337543781253687e+03,7.809018371002765e+04,3.339088339085387e+05,
450,-1.232297000000000e-01,-3.718390000000000e-03,1.181116804368595e-05,5.030854184932349e-05,2.809100612740063e+05,5.121192483942259e+03,7.264241816834411e+04,3.117165119429535e+05,
451,-1.177160000000000e-01,-3.731885000000000e-03,1.395740115963536e-05,7.103337688012819e-05,2.649649024287983e+05,5.422574939587186e+03,6.798291357674412e+04,2.929998735700225e+05,
452,-1.121342000000000e-01,-3.741777000000000e-03,1.599015555935843e-05,9.502126652989054e-05,2.505230061524260e+05,5.604405952979496e+03,6.397902193941401e+04,2.763302041343877e+05,
453,-1.064868000000000e-01,-3.748100000000000e-03,1.791019305454859e-05,1.221971615612646e-04,2.372038908257134e+05,5.818146196366335e+03,6.034464057056211e+04,2.609698553473921e+05,
454,-1.007766000000000e-01,-3.750890000000000e-03,1.971730514043255e-05,1.524848588066084e-04,2.247984617738608e+05,5.963207467421411e+03,5.707026622391010e+04,2.468135524537417e+05,
455,-9.499069000000000e-02,-3.749233000000000e-03,2.141074499607596e-05,1.859022750725326e-04,2.132524140417424e+05,6.022575585696934e+03,5.387266962537698e+04,2.335664018577560e+05,
456,-8.914457000000001e-02,-3.743841000000000e-03,2.298953670150844e-05,2.223137025486600e-04,2.024655566536017e+05,6.043803399838194e+03,5.094087728803344e+04,2.212722238935115e+05,
457,-8.324681000000000e-02,-3.735113000000000e-03,2.445421665732760e-05,2.616086947222469e-04,1.923870026229163e+05,6.101102935493214e+03,4.825066296217796e+04,2.097973839863391e+05,
458,-7.730015000000000e-02,-3.723105000000000e-03,2.580512761213013e-05,3.037102343816149e-04,1.829553311468568e+05,6.170194162895546e+03,4.575692714540394e+04,1.990672504094965e+05,
459,-7.130565000000000e-02,-3.707751000000000e-03,2.704236755872794e-05,3.485548391207149e-04,1.740924941774996e+05,6.184020493268012e+03,4.345430605383730e+04,1.890670843733794e+05,
460,-6.525549999999999e-02,-3.688218000000000e-03,2.816177298017258e-05,3.961532862617381e-04,1.657869807599965e+05,6.169098910973883e+03,4.118995568080350e+04,1.796227101507902e+05,
461,-5.916815000000000e-02,-3.665672000000000e-03,2.916877486500601e-05,4.463124939612312e-04,1.579621935919598e+05,6.129800728591277e+03,3.914751433988819e+04,1.708308726155296e+05,
462,-5.304641000000000e-02,-3.640182000000000e-03,3.006456523869822e-05,4.989537423020667e-04,1.506004709000100e+05,6.079599384701514e+03,3.723927515992468e+04,1.625833225189184e+05,
463,-4.689310000000000e-02,-3.611819000000000e-03,3.085033940620330e-05,5.539985474917755e-04,1.436464606212538e+05,6.022737192578502e+03,3.545051293943105e+04,1.548135805446266e+05,
464,-4.070687000000000e-02,-3.580180000000000e-03,3.152347435265593e-05,6.114079153452086e-04,1.370698480783879e+05,5.988534628282128e+03,3.373442332380528e+04,1.474257643824975e+05,
465,-3.449269000000000e-02,-3.545355000000000e-03,3.208441705531102e-05,6.710875604223146e-04,1.308465278210943e+05,5.963471837215823e+03,3.212103427819136e+04,1.404379615498441e+05,
466,-2.825901000000000e-02,-3.507980000000000e-03,3.253902529202960e-05,7.329062875901953e-04,1.249505752160531e+05,5.874444034475805e+03,3.064074258461033e+04,1.339199217507149e+05,
467,-2.200871000000000e-02,-3.468136000000000e-03,3.288937245813365e-05,7.967834366455816e-04,1.193646907055685e+05,5.713980644258620e+03,2.923811987124005e+04,1.278121845203341e+05,
468,-1.574467000000000e-02,-3.425902000000000e-03,3.313730247996560e-05,8.626378744752907e-04,1.140454179512745e+05,5.587411054937633e+03,2.788679769117708e+04,1.219583256764392e+05,
469,-9.468287000000001e-03,-3.380679000000000e-03,3.327693781088853e-05,9.304049584204109e-04,1.089832256726703e+05,5.579518463551329e+03,2.658606830466920e+04,1.162738267031380e+05,
470,-3.186947000000000e-03,-3.333197000000000e-03,3.331592691232711e-05,9.999563735904270e-04,1.041511631931660e+05,5.563003648324885e+03,2.540019301142727e+04,1.109067374982696e+05,
471,3.095891000000000e-03,-3.283675000000000e-03,3.325814357834431e-05,1.071204121707889e-03,9.955280026729289e+04,5.388308764296516e+03,2.429931871587576e+04,1.059659333004750e+05,
472,9.377325000000001e-03,-3.232197000000000e-03,3.310647324886652e-05,1.144065003085790e-03,9.517018072673904e+04,5.128849129296770e+03,2.322589718651399e+04,1.013173755893560e+05,
473,1.565371000000000e-02,-3.178708000000000e-03,3.286131594753069e-05,1.218446235448024e-03,9.097153415901726e+04,5.011312235304920e+03,2.215954802535373e+04,9.671267770011183e+04,
474,2.191793000000000e-02,-3.122975000000000e-03,3.251983680216264e-05,1.294213097972833e-03,8.694335049609141e+04,5.062907373404487e+03,2.117260070399517e+04,9.218201043723681e+04,
475,2.816851000000000e-02,-3.065639000000000e-03,3.209069802514439e-05,1.371298895159374e-03,8.307619837216599e+04,5.013322721377766e+03,2.027710441514257e+04,8.796849668330592e+04,
476,3.440257000000000e-02,-3.006782000000000e-03,3.157725958999059e-05,1.449619723487131e-03,7.938248381209237e+04,4.721571275731869e+03,1.943136784477865e+04,8.416985259603622e+04,
477,4.061722000000000e-02,-2.946487000000000e-03,3.098285170054856e-05,1.529089808217268e-03,7.584577245553856e+04,4.419890588995619e+03,1.856459093994052e+04,8.049989284143571e+04,
478,4.680344000000000e-02,-2.884573000000000e-03,3.030585159728586e-05,1.609542911909052e-03,7.243971098622387e+04,4.382446284089127e+03,1.771960822218983e+04,7.673154071780409e+04,
479,5.295731000000000e-02,-2.821270000000000e-03,2.954953157390322e-05,1.690877676577488e-03,6.914454027325878e+04,4.469862855664820e+03,1.695720837683765e+04,7.302740282121371e+04,
480,5.907970000000000e-02,-2.756870000000000e-03,2.871949325796928e-05,1.773057749228268e-03,6.597113433732725e+04,4.323240481939270e+03,1.626642364397171e+04,6.970544433160033e+04,
481,6.516779000000000e-02,-2.691452000000000e-03,2.781978813504108e-05,1.855997583453360e-03,6.293324076458532e+04,3.925464090170850e+03,1.559107104050710e+04,6.674012056340721e+04,
482,7.121877000000000e-02,-2.625094000000000e-03,2.685367870775879e-05,1.939610132295389e-03,6.001577361203749e+04,3.659550591370555e+03,1.485578849104776e+04,6.370872530445212e+04,
483,7.721327000000000e-02,-2.557624000000000e-03,2.581957156867835e-05,2.023575845913983e-03,5.719050224330429e+04,3.723786423711828e+03,1.419962528430746e+04,6.054095418303244e+04,
484,8.316086000000000e-02,-2.489445000000000e-03,2.472369460524301e-05,2.107978781465229e-03,5.443914707964804e+04,3.782379758455891e+03,1.359547584834146e+04,5.749309462539606e+04,
485,8.905962000000001e-02,-2.420647000000000e-03,2.356982193969402e-05,2.192745858607974e-03,5.178414944420757e+04,3.504720282355544e+03,1.304508335088219e+04,5.487804732969408e+04,
486,9.490684000000001e-02,-2.351304000000000e-03,2.236221404507050e-05,2.277791003249235e-03,4.924106843766602e+04,3.070046929363640e+03,1.247069580089547e+04,5.247700679491933e+04,
487,1.006927000000000e-01,-2.281449000000000e-03,2.110343744503585e-05,2.362922200973071e-03,4.679348593579797e+04,2.905635919971346e+03,1.186696431739250e+04,4.989431578299035e+04,
488,1.064041000000000e-01,-2.211164000000000e-03,1.979579906210736e-05,2.447895612308804e-03,4.440737953515397e+04,3.017716582744025e+03,1.134173607696354e+04,4.719792483014568e+04,
489,1.120528000000000e-01,-2.140638000000000e-03,1.844294010156654e-05,2.532838429781547e-03,4.207537694107783e+04,2.971350077038551e+03,1.085601048258456e+04,4.472736043380437e+04,
490,1.176359000000000e-01,-2.069941000000000e-03,1.704895389877939e-05,2.617662293373964e-03,3.982381554580043e+04,2.584066366150776e+03,1.039959952889175e+04,4.265449097584589e+04,
491,1.231511000000000e-01,-1.999143000000000e-03,1.561782603269229e-05,2.702286229374288e-03,3.767034529800068e+04,2.196588098239660e+03,9.886115238271332e+03,4.061192617797288e+04,
492,1.285761000000000e-01,-1.928341000000000e-03,1.415383122737201e-05,2.786318627688033e-03,3.559240688550786e+04,2.140001177808927e+03,9.411883178234848e+03,3.838486195722799e+04,
493,1.339162000000000e-01,-1.857657000000000e-03,1.265941830748974e-05,2.869792184303603e-03,3.355512584723332e+04,2.210670367185437e+03,8.977777322092476e+03,3.612307893744684e+04,
494,1.391778000000000e-01,-1.787160000000000e-03,1.113716097589465e-05,2.952762358984657e-03,3.156097155755944e+04,2.026886451884902e+03,8.575880110055561e+03,3.415325843426090e+04,
495,1.443584000000000e-01,-1.716915000000000e-03,9.591137314373929e-06,3.035146267451227e-03,2.963865133002369e+04,1.609753037852430e+03,8.177548567735080e+03,3.245163080314370e+04,
496,1.494538000000000e-01,-1.646998000000000e-03,8.025140206924038e-06,3.116832851005360e-03,2.780401531819990e+04,1.328508149687274e+03,7.713125070741594e+03,3.064182881711817e+04,
497,1.544304000000000e-01,-1.577663000000000e-03,6.447540983763464e-06,3.197234681671640e-03,2.602526413031211e+04,1.315785671747379e+03,7.355125695927113e+03,2.875673524073662e+04,
498,1.593162000000000e-01,-1.508859000000000e-03,4.856408375787404e-06,3.276757244751420e-03,2.427540523684635e+04,1.270364076540546e+03,6.981434735290166e+03,2.691084618959107e+04,
499,1.641087000000000e-01,-1.440651000000000e-03,3.255236724405279e-06,3.355318881020251e-03,2.256408686796396e+04,9.909755684571498e+02,6.632665182464673e+03,2.532524670820849e+04,
500,1.688059000000000e-01,-1.373103000000000e-03,1.647706495115793e-06,3.432845464975347e-03,2.091991894756848e+04,6.386548099544013e+02,6.256259623663802e+03,2.383050173484425e+04,
501,1.733892000000000e-01,-1.306416000000000e-03,4.094843658513183e-08,3.508986650555444e-03,1.934410060509614e+04,4.600251827221136e+02,5.887492583646022e+03,2.225440586148860e+04,
502,1.778487000000000e-01,-1.240759000000000e-03,-1.559607779784975e-06,3.583532595888209e-03,1.780551402496510e+04,4.056836587833691e+02,5.574672704267222e+03,2.066547845588648e+04,
503,1.822038000000000e-01,-1.176033000000000e-03,-3.156035701085315e-06,3.656765672544486e-03,1.629007265306781e+04,2.515338078471750e+02,5.251773910402690e+03,1.917183468303429e+04,
504,1.864526000000000e-01,-1.112301000000000e-03,-4.744974306795471e-06,3.728615602442147e-03,1.481171948244851e+04,-4.420655782324479e+01,4.938566171652083e+03,1.783973883892838e+04,
505,1.905931000000000e-01,-1.049626000000000e-03,-6.323127404118992e-06,3.799010478541870e-03,1.339426552818845e+04,-3.203596653677007e+02,4.577185631290959e+03,1.648919213948672e+04,
506,1.945892000000000e-01,-9.884466000000000e-04,-7.876787438765606e-06,3.867295278451626e-03,1.202499646179278e+04,-4.663341223238589e+02,4.297129819935443e+03,1.516227682504186e+04,
507,1.984619000000000e-01,-9.286170000000000e-04,-9.409419666560066e-06,3.933787724882068e-03,1.068227133680930e+04,-5.883024461726720e+02,4.007763750271319e+03,1.383020298150377e+04,
508,2.022186000000000e-01,-8.701066000000000e-04,-1.092078627973283e-05,3.998578741440710e-03,9.361098724922602e+03,-8.011111713338130e+02,3.717717240533933e+03,1.259190993844162e+04,
509,2.058574000000000e-01,-8.129762000000000e-04,-1.240775031209236e-05,4.061601106600162e-03,8.076517646440569e+03,-1.083840111418094e+03,3.423957637804734e+03,1.143704935172909e+04,
510,2.093693000000000e-01,-7.573787000000000e-04,-1.386468809051999e-05,4.122664507414430e-03,6.847940691870954e+03,-1.320133570043520e+03,3.103134677263542e+03,1.025842173285402e+04,
511,2.127198000000000e-01,-7.038169000000000e-04,-1.527630721122968e-05,4.181132446118891e-03,5.657886617536794e+03,-1.487992554095634e+03,2.870219996661956e+03,9.166037336413310e+03,
512,2.159455000000000e-01,-6.518846000000000e-04,-1.665324922669976e-05,4.237609023741125e-03,4.494147388458561e+03,-1.681088019049767e+03,2.598234677446204e+03,8.070738881569670e+03,
513,2.190452000000000e-01,-6.016389000000000e-04,-1.799278090963291e-05,4.292043218907394e-03,3.361301203851524e+03,-1.928357917358405e+03,2.331095776825180e+03,7.050994518614246e+03,
514,2.220172000000000e-01,-5.531363000000000e-04,-1.929208602024409e-05,4.344376262790349e-03,2.276308089017023e+03,-2.197343154567075e+03,2.046791144394072e+03,6.063907272073142e+03,
515,2.248340000000000e-01,-5.068136000000000e-04,-2.053777932004596e-05,4.394094858812251e-03,1.253808181353222e+03,-2.419889277707975e+03,1.794992301481231e+03,5.136539931726438e+03,
516,2.274956000000000e-01,-4.627367000000000e-04,-2.172714237324310e-05,4.441170608668347e-03,2.689144612994953e+02,-2.656047721685850e+03,1.561748105327896e+03,4.279209313632075e+03,
517,2.300241000000000e-01,-4.206241000000000e-04,-2.286718315064051e-05,4.485969302525601e-03,-6.721669481618325e+02,-2.873900230078450e+03,1.311931413995393e+03,3.425242412561646e+03,
518,2.324184000000000e-01,-3.805236000000000e-04,-2.395569052905943e-05,4.528449428424837e-03,-1.536082390835930e+03,-3.053210146808580e+03,1.072501696266691e+03,2.627302072834856e+03,
519,2.346773000000000e-01,-3.424839000000000e-04,-2.499028238302999e-05,4.568569763650283e-03,-2.363768981130616e+03,-3.428507307328025e+03,8.303032897516972e+02,1.972633243956824e+03,
520,2.367526000000000e-01,-3.073255000000000e-04,-2.594740772740259e-05,4.605455561648945e-03,-3.113244532951982e+03,-3.750347382722748e+03,6.291077316000089e+02,1.410321308433531e+03,
521,2.386838000000000e-01,-2.744819000000000e-04,-2.684255961261708e-05,4.639793110419755e-03,-3.732711400151486e+03,-3.867030116517448e+03,4.292926169167795e+02,8.690282626722953e+02,
522,2.404756000000000e-01,-2.438567000000000e-04,-2.767727564264130e-05,4.671654078960814e-03,-4.262387404229828e+03,-4.139165171523628e+03,2.470838473823980e+02,5.092989585521001e+02,
523,2.421274000000000e-01,-2.154571000000000e-04,-2.845034698146254e-05,4.701018713361063e-03,-4.658822967719407e+03,-4.469148052181072e+03,8.726777203722764e+01,2.577580837332530e+02,
524,2.436242000000000e-01,-1.895372000000000e-04,-2.915420485145152e-05,4.727614483759032e-03,-4.891537342683341e+03,-4.690152074935915e+03,-3.122258341795151e+01,2.108445515702732e+02,
525,2.449378000000000e-01,-1.669242000000000e-04,-2.976912668267132e-05,4.750938536159786e-03,-4.979745619648664e+03,-4.986627185013123e+03,-1.354580875973091e+02,2.710035607218920e+02,
526,2.461073000000000e-01,-1.470045000000000e-04,-3.031202284067613e-05,4.771686418536238e-03,-4.867861822274833e+03,-5.136825659057610e+03,-2.176868921025730e+02,5.117537273630979e+02,
527,2.471341000000000e-01,-1.292715000000000e-04,-3.079213362546382e-05,4.789886311004408e-03,-4.520704611125379e+03,-5.176380709067917e+03,-2.775945128186666e+02,8.591542350482185e+02,
528,2.480196000000000e-01,-1.132119000000000e-04,-3.121865430960555e-05,4.805568199474016e-03,-4.119405649179747e+03,-5.809615368109377e+03,-2.165223282140068e+02,1.744802730518562e+03,
529,2.487303000000000e-01,-9.896769000000000e-05,-3.158386603741995e-05,4.818144879305921e-03,-3.388571264211599e+03,-5.358195960015063e+03,-3.977792935804700e+02,2.124225719626895e+03,
530,2.492635000000000e-01,-9.083101000000000e-05,-3.181227072135485e-05,4.827575963807962e-03,-3.242610303505542e+03,-5.070152587200548e+03,-5.296390255719878e+02,2.112340121365055e+03,
531,2.496380000000000e-01,-8.885479000000000e-05,-3.190666738393975e-05,4.834198499913806e-03,-4.192107166595773e+03,-2.181695918020343e+03,-1.369599822892386e+03,3.397788705594573e+03,
532,2.498726000000000e-01,-8.780969999999999e-05,-3.196362111708212e-05,4.838346398267595e-03,-6.238202759091453e+03,4.201125254325838e+03,-2.452865289179389e+03,1.153454645311914e+04,
533,2.500714000000000e-01,-4.772185000000000e-05,-3.270695602552242e-05,4.841856903849476e-03,-9.423650915342812e+03,-4.033959787518310e+02,-2.880276661880129e+03,1.070275542638340e+04,
534,-1.495276000000000e-01,-7.178700000000000e-03,0.000000000000000e+00,0.000000000000000e+00,7.009706788996588e+05,2.449647959732570e+05,1.326148176484011e+05,5.275302121235920e+05,
535,-1.444322000000000e-01,-7.245339000000000e-03,4.479858530745198e-06,2.610580974595299e-06,6.600291479348004e+05,5.255465468831833e+04,6.428591024128258e+04,6.209315364573384e+05,
536,-1.392533000000000e-01,-7.304550000000000e-03,9.505796539641278e-06,9.526892003438532e-06,6.617359937510581e+05,-3.880134476032577e+03,6.586946993731707e+04,6.785278022567059e+05,
537,-1.339933000000000e-01,-7.356349000000000e-03,1.451482237696276e-05,1.995338248568215e-05,6.325697401450842e+05,2.381675066964417e+02,6.112196239864551e+04,6.440394358307435e+05,
538,-1.286547000000000e-01,-7.400758000000000e-03,1.925639570347201e-05,3.380300822596216e-05,5.913380181571437e+05,1.671938438655276e+03,5.808162573765032e+04,6.009991568745208e+05,
539,-1.232297000000000e-01,-7.436779000000000e-03,2.377398486717270e-05,5.109183055345749e-05,5.563554502731471e+05,2.882234867853169e+03,5.577248421497877e+04,5.646015233358083e+05,
540,-1.177160000000000e-01,-7.463770000000000e-03,2.808105372350451e-05,7.177980975536490e-05,5.250102479783040e+05,3.351546309073625e+03,5.319635870579446e+04,5.323976064422618e+05,
541,-1.121342000000000e-01,-7.483554000000000e-03,3.217461576617563e-05,9.573598360386820e-05,4.963098601284702e+05,3.688489255277573e+03,5.082283489985426e+04,5.029986652368126e+05,
542,-1.064868000000000e-01,-7.496199000000000e-03,3.605647516018158e-05,1.228829583583802e-04,4.697630238856078e+05,4.059553260664790e+03,4.858344470137401e+04,4.757322008738982e+05,
543,-1.007766000000000e-01,-7.501779000000000e-03,3.972741333745201e-05,1.531446321920423e-04,4.450298542007216e+05,4.323964585605263e+03,4.659088525416682e+04,4.504492463047518e+05,
544,-9.499069000000000e-02,-7.498467000000000e-03,4.318690200727587e-05,1.865385366465864e-04,4.220009521564549e+05,4.478951991754284e+03,4.456077665348997e+04,4.269277127165454e+05,
545,-8.914457000000001e-02,-7.487682000000000e-03,4.643369672728282e-05,2.229285663676722e-04,4.004885610197621e+05,4.587701596567726e+03,4.264991131199634e+04,4.049858642368997e+05,
546,-8.324681000000000e-02,-7.470227000000000e-03,4.946970217233285e-05,2.622037921267346e-04,3.803927880033539e+05,4.745279231280128e+03,4.084549922269215e+04,3.844274574918771e+05,
547,-7.730015000000000e-02,-7.446210000000000e-03,5.229640874214779e-05,3.042871846897088e-04,3.615910955973463e+05,4.915202758910189e+03,3.915591438525503e+04,3.651717884194742e+05,
548,-7.130565000000000e-02,-7.415502000000000e-03,5.491463492555086e-05,3.491153808605602e-04,3.439236409711583e+05,4.996096481752288e+03,3.759689198192739e+04,3.471685261662139e+05,
549,-6.525549999999999e-02,-7.376436000000000e-03,5.731669454679804e-05,3.966987036976192e-04,3.273664161409349e+05,5.059645138091398e+03,3.599983850653991e+04,3.302508260765856e+05,
550,-5.916815000000000e-02,-7.331344000000000e-03,5.951341986622580e-05,4.468440616696350e-04,3.117706787115796e+05,5.099305274096726e+03,3.453930745235745e+04,3.143551913412375e+05,
551,-5.304641000000000e-02,-7.280364000000000e-03,6.150744568860251e-05,4.994726299820378e-04,2.971018403108369e+05,5.115935383735766e+03,3.314801949014395e+04,2.994176572291186e+05,
552,-4.689310000000000e-02,-7.223638000000000e-03,6.330147716191073e-05,5.545057360901859e-04,2.832601785033108e+05,5.106878611041394e+03,3.183234335135936e+04,2.853461942516740e+05,
553,-4.070687000000000e-02,-7.160359000000000e-03,6.489079574147920e-05,6.119039844630211e-04,2.701874759973498e+05,5.124112650841130e+03,3.054197072564385e+04,2.720107249572848e+05,
554,-3.449269000000000e-02,-7.090710000000000e-03,6.627655108425000e-05,6.715730549176557e-04,2.578258679770126e+05,5.174082202896701e+03,2.930570178293744e+04,2.593611795986663e+05,
555,-2.825901000000000e-02,-7.015961000000000e-03,6.747007057579857e-05,7.333821923013639e-04,2.461100431965359e+05,5.150956196587302e+03,2.816658192809479e+04,2.474564748756781e+05,
556,-2.200871000000000e-02,-6.936272000000000e-03,6.847510391716792e-05,7.972507415734103e-04,2.350131421587626e+05,5.017480300399016e+03,2.707760644833523e+04,2.362854027602011e+05,
557,-1.574467000000000e-02,-6.851805000000000e-03,6.929540713631805e-05,8.630968491030501e-04,2.244738041305439e+05,4.902697749634497e+03,2.600169587154639e+04,2.256453489662976e+05,
558,-9.468287000000001e-03,-6.761359000000000e-03,6.991975900610739e-05,9.308552212410504e-04,2.144766471226132e+05,4.951979856403486e+03,2.493545277065898e+04,2.153780244419726e+05,
559,-3.186947000000000e-03,-6.666394000000000e-03,7.036334685479263e-05,1.000398247884125e-03,2.049387765270021e+05,5.012338976469035e+03,2.396376215284241e+04,2.055909239672783e+05,
560,3.095891000000000e-03,-6.567350000000000e-03,7.063309174016409e-05,1.071638735685633e-03,1.958449682881147e+05,4.876175606981142e+03,2.307353656782710e+04,1.964653458935626e+05,
561,9.377325000000001e-03,-6.464394000000000e-03,7.073383294027860e-05,1.144493041312312e-03,1.871836256482613e+05,4.607220299912113e+03,2.219198882355146e+04,1.878938031487554e+05,
562,1.565371000000000e-02,-6.357417000000000e-03,7.066642546924590e-05,1.218867110180661e-03,1.789294256834426e+05,4.496308848388948e+03,2.127429273690479e+04,1.795474710894407e+05,
563,2.191793000000000e-02,-6.245950000000000e-03,7.042553285012514e-05,1.294625995703312e-03,1.710475794623649e+05,4.616198167206070e+03,2.040716054431704e+04,1.713628124353141e+05,
564,2.816851000000000e-02,-6.131278000000000e-03,7.002828178557339e-05,1.371704387145986e-03,1.634700858443510e+05,4.632805112439952e+03,1.963837568469479e+04,1.636213462493228e+05,
565,3.440257000000000e-02,-6.013564000000000e-03,6.947981097369688e-05,1.450019044107167e-03,1.562063982293156e+05,4.345526215106860e+03,1.893005763157078e+04,1.565091459840422e+05,
566,4.061722000000000e-02,-5.892974000000000e-03,6.878567419239352e-05,1.529483030159687e-03,1.492685065887177e+05,4.016608909483291e+03,1.817463467936496e+04,1.497310360691205e+05,
567,4.680344000000000e-02,-5.769145000000000e-03,6.794255182523669e-05,1.609928767066384e-03,1.426432481846834e+05,4.001650650020669e+03,1.739685177111872e+04,1.429408771945538e+05,
568,5.295731000000000e-02,-5.642539000000000e-03,6.695750576935882e-05,1.691255538110479e-03,1.362602835796191e+05,4.159104651640921e+03,1.669093714037811e+04,1.362537008842619e+05,
569,5.907970000000000e-02,-5.513740000000000e-03,6.584096072492378e-05,1.773428586738144e-03,1.300841964919236e+05,4.055369362474193e+03,1.608115566796867e+04,1.300679804490498e+05,
570,6.516779000000000e-02,-5.382904000000000e-03,6.459886658617150e-05,1.856362402993826e-03,1.241462187115045e+05,3.636073072130649e+03,1.549624897590763e+04,1.244316283398894e+05,
571,7.121877000000000e-02,-5.250188000000000e-03,6.323691612694849e-05,1.939968296008711e-03,1.184753116232317e+05,3.345880092753867e+03,1.481672070348792e+04,1.188819870886739e+05,
572,7.721327000000000e-02,-5.115249000000000e-03,6.175111349755730e-05,2.023925881351007e-03,1.130423110085979e+05,3.450560525709665e+03,1.417901155185647e+04,1.132012775910871e+05,
573,8.316086000000000e-02,-4.978890000000000e-03,6.015517404245374e-05,2.108320605681672e-03,1.077586210966907e+05,3.567603592780507e+03,1.360038128636045e+04,1.076830980843217e+05,
574,8.905962000000001e-02,-4.841294000000000e-03,5.845490453929148e-05,2.193080628950211e-03,1.026211429488115e+05,3.304613114672957e+03,1.310531623861192e+04,1.027169428728846e+05,
575,9.490684000000001e-02,-4.702608000000000e-03,5.665662401347503e-05,2.278119164178097e-03,9.768488307795822e+04,2.840446886016691e+03,1.258529177670713e+04,9.812759730568499e+04,
576,1.006927000000000e-01,-4.562897000000000e-03,5.476433174684789e-05,2.363242647048306e-03,9.297548779998120e+04,2.669716261348867e+03,1.199851748211110e+04,9.343976701737737e+04,
577,1.064041000000000e-01,-4.422327000000000e-03,5.278222278477842e-05,2.448207254414968e-03,8.842960994217626e+04,2.825488403885478e+03,1.146675628021856e+04,8.862286173839224e+04,
578,1.120528000000000e-01,-4.281275000000000e-03,5.071850705463776e-05,2.533141674859874e-03,8.397617874425449e+04,2.817840024644880e+03,1.099342929142099e+04,8.408387416186754e+04,
579,1.176359000000000e-01,-4.139882000000000e-03,4.857905622636032e-05,2.617958098111823e-03,7.963978370464520e+04,2.425382250379300e+03,1.057388912562134e+04,8.005805591509372e+04,
580,1.231511000000000e-01,-3.998286000000000e-03,4.637007754727708e-05,2.702574449769046e-03,7.548936586940440e+04,2.014855562271801e+03,1.008670168141031e+04,7.619363403928177e+04,
581,1.285761000000000e-01,-3.856682000000000e-03,4.409776946088612e-05,2.786598148999976e-03,7.152419601617765e+04,1.969871263824611e+03,9.605295893268456e+03,7.215851251615952e+04,
582,1.339162000000000e-01,-3.715314000000000e-03,4.176813924527455e-05,2.870062542533563e-03,6.766071514623209e+04,2.074290607618612e+03,9.156076108932599e+03,6.809488969525910e+04,
583,1.391778000000000e-01,-3.574319000000000e-03,3.938608232140967e-05,2.953024147108713e-03,6.386028204709379e+04,1.908751031974910e+03,8.759583077092866e+03,6.438100168415526e+04,
584,1.443584000000000e-01,-3.433830000000000e-03,3.695761535920578e-05,3.035399984649493e-03,6.017052796395708e+04,1.479891626348336e+03,8.380499623084277e+03,6.103705341383629e+04,
585,1.494538000000000e-01,-3.293997000000000e-03,3.448889692680806e-05,3.117078043828349e-03,5.665295588011296e+04,1.189599579199935e+03,7.922399055179163e+03,5.768224613622500e+04,
586,1.544304000000000e-01,-3.155327000000000e-03,3.199249799279337e-05,3.197470638090096e-03,5.327090593900153e+04,1.195464209647579e+03,7.544603001358534e+03,5.421748582422254e+04,
587,1.593162000000000e-01,-3.017718000000000e-03,2.946802030982127e-05,3.276983987699846e-03,4.994985942653233e+04,1.167963283237716e+03,7.154639829434682e+03,5.083727840562390e+04,
588,1.641087000000000e-01,-2.881302000000000e-03,2.692087987353707e-05,3.355536860485037e-03,4.668647058519155e+04,8.931422765964651e+02,6.805003379709758e+03,4.777301750538917e+04,
589,1.688059000000000e-01,-2.746206000000000e-03,2.435681543516545e-05,3.433054771604903e-03,4.353700650544082e+04,5.337547318278077e+02,6.432089687073252e+03,4.488615347827175e+04,
590,1.733892000000000e-01,-2.612831000000000e-03,2.178701225003517e-05,3.509186912574532e-03,4.052540965182697e+04,3.577487480780333e+02,6.053301416046578e+03,4.195248281821478e+04,
591,1.778487000000000e-01,-2.481517000000000e-03,1.922081560611556e-05,3.583723595081926e-03,3.760006379927060e+04,3.154706268104960e+02,5.717332488664920e+03,3.899862114459476e+04,
592,1.822038000000000e-01,-2.352065000000000e-03,1.665614979031909e-05,3.656947593898723e-03,3.471941568917884e+04,1.696747183060537e+02,5.377012359338625e+03,3.618471567947338e+04,
593,1.864526000000000e-01,-2.224602000000000e-03,1.409837607256579e-05,3.728788693508395e-03,3.190026140497722e+04,-1.252540687013793e+02,5.054961543963930e+03,3.358339152317175e+04,
594,1.905931000000000e-01,-2.099252000000000e-03,1.155289313180707e-05,3.799174729126502e-03,2.919116492724550e+04,-4.033857836609022e+02,4.688519555615065e+03,3.104458558708669e+04,
595,1.945892000000000e-01,-1.976893000000000e-03,9.041364384105107e-06,3.867450589986632e-03,2.658233830500229e+04,-5.435365784585033e+02,4.387305315927750e+03,2.850976814942276e+04,
596,1.984619000000000e-01,-1.857234000000000e-03,6.559522876273708e-06,3.933934157250381e-03,2.403019409603730e+04,-6.602169705877154e+02,4.074391304600446e+03,2.600036647147371e+04,
597,2.022186000000000e-01,-1.740213000000000e-03,4.108214954205533e-06,3.998716502923085e-03,2.152025120095228e+04,-8.678635879301601e+02,3.765744933842898e+03,2.362098692745988e+04,
598,2.058574000000000e-01,-1.625952000000000e-03,1.692586412594358e-06,4.061730385681746e-03,1.907608586345393e+04,-1.150431287875304e+03,3.458616139360127e+03,2.137662504865501e+04,
599,2.093693000000000e-01,-1.514757000000000e-03,-6.781375838515040e-07,4.122785385695949e-03,1.673521888639848e+04,-1.385921438789701e+03,3.127369097757978e+03,1.917022369665017e+04,
600,2.127198000000000e-01,-1.407634000000000e-03,-2.979194244038205e-06,4.181245074797646e-03,1.447262823176189e+04,-1.548578136085696e+03,2.869051235630708e+03,1.701778109660176e+04,
601,2.159455000000000e-01,-1.303769000000000e-03,-5.226786893671580e-06,4.237713602420012e-03,1.226004928342193e+04,-1.739796376273526e+03,2.576874757567371e+03,1.491833812996761e+04,
602,2.190452000000000e-01,-1.203278000000000e-03,-7.416240599983374e-06,4.292139984294504e-03,1.010547459539691e+04,-1.982974921564820e+03,2.292184594577254e+03,1.292853636675867e+04,
603,2.220172000000000e-01,-1.106273000000000e-03,-9.542833499770828e-06,4.344465440097971e-03,8.038008342251925e+03,-2.251811385919445e+03,1.997333740747820e+03,1.103801423834846e+04,
604,2.248340000000000e-01,-1.013627000000000e-03,-1.158468743683891e-05,4.394176699716276e-03,6.081693187302355e+03,-2.470690727477218e+03,1.730886218617336e+03,9.226436963041479e+03,
605,2.274956000000000e-01,-9.254735000000000e-04,-1.353684944928648e-05,4.441245429010884e-03,4.201506083122016e+03,-2.705672150103188e+03,1.477987124660493e+03,7.513114860574728e+03,
606,2.300241000000000e-01,-8.412482000000000e-04,-1.541029324085998e-05,4.486037361143651e-03,2.404018959955499e+03,-2.921722827985283e+03,1.214580514141859e+03,5.853575735663722e+03,
607,2.324184000000000e-01,-7.610472000000000e-04,-1.720111150451198e-05,4.528511000452096e-03,7.341817164155941e+02,-3.092428416516712e+03,9.668453602127144e+02,4.287435703508521e+03,
608,2.346773000000000e-01,-6.849677000000000e-04,-1.890524856577592e-05,4.568625254846731e-03,-8.471973720466731e+02,-3.472041363961834e+03,7.167735479486360e+02,2.990796425377130e+03,
609,2.367526000000000e-01,-6.146510000000000e-04,-2.048385583926812e-05,4.605505380611337e-03,-2.286325018290535e+03,-3.790129540266768e+03,5.038429299949318e+02,1.810209610166644e+03,
610,2.386838000000000e-01,-5.489638999999999e-04,-2.196164202456502e-05,4.639837541210655e-03,-3.519839595990937e+03,-3.896785147104650e+03,3.095260262069856e+02,7.247850661419369e+02,
611,2.404756000000000e-01,-4.877134000000000e-04,-2.334117526727917e-05,4.671693543955603e-03,-4.584329319734275e+03,-4.168890491609470e+03,1.341120909704880e+02,4.945034192921342e+02,
612,2.421274000000000e-01,-4.309143000000000e-04,-2.462053146210461e-05,4.701053591698131e-03,-5.428129268763460e+03,-4.497562948408719e+03,-1.585170204400174e+01,9.311062143543736e+02,
613,2.436242000000000e-01,-3.790743000000000e-04,-2.578709902597475e-05,4.727645150268208e-03,-6.009872455109829e+03,-4.709552502217610e+03,-1.276731205734147e+02,1.325154210934500e+03,
614,2.449378000000000e-01,-3.338484000000000e-04,-2.680599370299909e-05,4.750965556612249e-03,-6.325869404101770e+03,-4.998943172153552e+03,-1.968768567282623e+02,1.384115317411485e+03,
615,2.461073000000000e-01,-2.940091000000000e-04,-2.770472578113621e-05,4.771710211224168e-03,-6.302309059691281e+03,-5.162670348281978e+03,-2.487323786027582e+02,1.243482037346823e+03,
616,2.471341000000000e-01,-2.585430000000000e-04,-2.850132445198477e-05,4.789907227313589e-03,-5.915528190680672e+03,-5.153922317132804e+03,-3.062688835095390e+02,9.773668823156104e+02,
617,2.480196000000000e-01,-2.264238000000000e-04,-2.921407199751256e-05,4.805586620466477e-03,-5.374453863808445e+03,-5.825322189575260e+03,-1.152058958099546e+02,5.063317498412251e+02,
618,2.487303000000000e-01,-1.979354000000000e-04,-2.983251614999661e-05,4.818160939945328e-03,-4.409665584026930e+03,-5.393123327722014e+03,-3.797857513080415e+02,1.242633494325772e+03,
619,2.492635000000000e-01,-1.816620000000000e-04,-3.020556741917759e-05,4.827590664443618e-03,-3.759414445027499e+03,-4.897205599470257e+03,-4.702305599443757e+02,1.476155760463846e+03,
620,2.496380000000000e-01,-1.777096000000000e-04,-3.033501714948803e-05,4.834212523892274e-03,-3.410961585027353e+03,-2.795445983065581e+03,-1.448373747657586e+03,2.961419508930317e+03,
621,2.498726000000000e-01,-1.756194000000000e-04,-3.040970275719036e-05,4.838359398529982e-03,-4.068350033442302e+03,3.462160314344343e+03,-3.195788628516180e+03,9.877289401993597e+03,
622,2.500714000000000e-01,-1.255838000000000e-04,-3.132842525621772e-05,4.841868728938378e-03,-4.414026724765798e+03,3.205180699342658e+03,-4.528414046815366e+03,1.183547451051999e+04,
623,-1.495276000000000e-01,-1.076805000000000e-02,0.000000000000000e+00,0.000000000000000e+00,1.105701439999044e+06,3.861743782823684e+05,1.959548722574943e+05,8.193365855302917e+05,
624,-1.444322000000000e-01,-1.086801000000000e-02,7.068232955870791e-06,3.855922661992170e-06,1.002556669122839e+06,-2.629653137729358e+03,4.158875832873953e+04,1.008621852696555e+06,
625,-1.392533000000000e-01,-1.095682000000000e-02,1.490436727316541e-05,1.109857868257308e-05,1.004133694923961e+06,6.650091551598473e+03,2.869258102619155e+04,9.991329219981151e+05,
626,-1.339933000000000e-01,-1.103452000000000e-02,2.225391466508554e-05,2.140333127816639e-05,9.309270936095379e+05,-1.320178796828295e+02,2.400065533880227e+04,9.322956585299887e+05,
627,-1.286547000000000e-01,-1.110114000000000e-02,2.928860814194351e-05,3.517532099080806e-05,8.771404224935322e+05,1.728000620125569e+03,2.629497202528961e+04,8.769906559282752e+05,
628,-1.232297000000000e-01,-1.115517000000000e-02,3.602486908843820e-05,5.239100953936792e-05,8.277084845609892e+05,2.524462975531989e+03,2.758490297896848e+04,8.270262250795828e+05,
629,-1.177160000000000e-01,-1.119566000000000e-02,4.246396237862302e-05,7.301690455356169e-05,7.819892184129276e+05,2.824849224908086e+03,2.816746002743789e+04,7.811982702424228e+05,
630,-1.121342000000000e-01,-1.122533000000000e-02,4.859368753724945e-05,9.691601267432264e-05,7.395275510901911e+05,3.014603750552191e+03,2.835954633897590e+04,7.386936963810724e+05,
631,-1.064868000000000e-01,-1.124430000000000e-02,5.441562991652492e-05,1.240098102626318e-04,7.001059193766963e+05,3.392847948787432e+03,2.834378804293919e+04,6.990154398731139e+05,
632,-1.007766000000000e-01,-1.125267000000000e-02,5.993024187261431e-05,1.542224460027550e-04,6.633201507486720e+05,3.721264537484765e+03,2.840436127396203e+04,6.620407250680019e+05,
633,-9.499069000000000e-02,-1.124770000000000e-02,6.513691604482884e-05,1.875711327842402e-04,6.290414453418618e+05,3.826972170718042e+03,2.832437404822293e+04,6.277756112844506e+05,
634,-8.914457000000001e-02,-1.123152000000000e-02,7.003465932878452e-05,2.239191660420512e-04,5.970394816341082e+05,3.841066941190533e+03,2.809454096072634e+04,5.958536499186411e+05,
635,-8.324681000000000e-02,-1.120534000000000e-02,7.462707673242609e-05,2.631548912842641e-04,5.671431702612072e+05,3.983495250885329e+03,2.773805554532108e+04,5.658855170964111e+05,
636,-7.730015000000000e-02,-1.116932000000000e-02,7.891610153916704e-05,3.052012489276131e-04,5.391288678223094e+05,4.205397354910925e+03,2.734070099104509e+04,5.377110515691607e+05,
637,-7.130565000000000e-02,-1.112325000000000e-02,8.290264211280089e-05,3.499952105565907e-04,5.127959883602921e+05,4.328415376369914e+03,2.701963084609283e+04,5.113311202932957e+05,
638,-6.525549999999999e-02,-1.106465000000000e-02,8.657578120097623e-05,3.975463830158895e-04,4.881111980231286e+05,4.359987586178032e+03,2.656546715420809e+04,4.866601789541652e+05,
639,-5.916815000000000e-02,-1.099702000000000e-02,8.995212377740545e-05,4.476616211294344e-04,4.648689775677371e+05,4.392331195158166e+03,2.604665330755876e+04,4.634139126619245e+05,
640,-5.304641000000000e-02,-1.092055000000000e-02,9.303530970216675e-05,5.002620318208964e-04,4.429840830344306e+05,4.451422233121485e+03,2.550417357047204e+04,4.414892366383660e+05,
641,-4.689310000000000e-02,-1.083546000000000e-02,9.582904112049582e-05,5.552687729704274e-04,4.223226077235268e+05,4.476156826973226e+03,2.499379979471063e+04,4.208258744891505e+05,
642,-4.070687000000000e-02,-1.074054000000000e-02,9.832669286527955e-05,6.126419250309732e-04,4.028345723188509e+05,4.495578926754089e+03,2.445867719800953e+04,4.013313608699607e+05,
643,-3.449269000000000e-02,-1.063606000000000e-02,1.005304070225391e-04,6.722869356638011e-04,3.844181960619170e+05,4.557030968107588e+03,2.385284746549514e+04,3.828450575301646e+05,
644,-2.825901000000000e-02,-1.052394000000000e-02,1.024569581958713e-04,7.340736113705922e-04,3.669344848291603e+05,4.583668961869162e+03,2.325050416424456e+04,3.653224021809472e+05,
645,-2.200871000000000e-02,-1.040441000000000e-02,1.041110248369519e-04,7.979214929260382e-04,3.503420095751904e+05,4.483757010142747e+03,2.268826728083186e+04,3.488222480808444e+05,
646,-1.574467000000000e-02,-1.027771000000000e-02,1.054981736437846e-04,8.637478937754218e-04,3.346168404442781e+05,4.362766591085477e+03,2.214035091529244e+04,3.332094444208315e+05,
647,-9.468287000000001e-03,-1.014204000000000e-02,1.066025078785704e-04,9.314864904150426e-04,3.197532795570885e+05,4.411304070942289e+03,2.151679667995191e+04,3.182647508929803e+05,
648,-3.186947000000000e-03,-9.999591000000000e-03,1.074469752104978e-04,1.001010408684607e-03,3.055683081893754e+05,4.526834139484066e+03,2.086634641537655e+04,3.039203625113615e+05,
649,3.095891000000000e-03,-9.851024999999999e-03,1.080408173301639e-04,1.072233553085559e-03,2.919774608030880e+05,4.452453905081529e+03,2.029385788504110e+04,2.903756054890487e+05,
650,9.377325000000001e-03,-9.696590999999999e-03,1.083902072703749e-04,1.145071952776698e-03,2.790175434763575e+05,4.180064271094771e+03,1.977251650597861e+04,2.776678764492213e+05,
651,1.565371000000000e-02,-9.536124999999999e-03,1.084969862596620e-04,1.219429967068601e-03,2.667411809566951e+05,4.037795643730133e+03,1.919683815774633e+04,2.654941487790474e+05,
652,2.191793000000000e-02,-9.368925000000000e-03,1.083541219714693e-04,1.295172097330487e-03,2.550758148326496e+05,4.184843994631156e+03,1.855045871950666e+04,2.536193157526845e+05,
653,2.816851000000000e-02,-9.196915999999999e-03,1.079868958050174e-04,1.372234640382837e-03,2.438143082688350e+05,4.280853633248596e+03,1.793546211893359e+04,2.422044572160830e+05,
654,3.440257000000000e-02,-9.020346000000000e-03,1.074012524141628e-04,1.450535341374766e-03,2.329412304859494e+05,4.030212214349947e+03,1.743820428731039e+04,2.315526250363066e+05,
655,4.061722000000000e-02,-8.839461000000000e-03,1.066047763314595e-04,1.529986040238058e-03,2.225795791218249e+05,3.663185322172698e+03,1.694786606133122e+04,2.215249605132019e+05,
656,4.680344000000000e-02,-8.653717999999999e-03,1.055934144331627e-04,1.610417420954386e-03,2.127843721684768e+05,3.625388347133936e+03,1.636456175479307e+04,2.117042182831567e+05,
657,5.295731000000000e-02,-8.463808999999999e-03,1.043784980022229e-04,1.691729302924667e-03,2.033763998872032e+05,3.839509904435736e+03,1.573651836564281e+04,2.020037685417871e+05,
658,5.907970000000000e-02,-8.270609999999999e-03,1.029745433819985e-04,1.773888796521600e-03,1.941872337727569e+05,3.807980120236529e+03,1.520544981463507e+04,1.927928500685444e+05,
659,6.516779000000000e-02,-8.074356000000000e-03,1.013885364979508e-04,1.856810656942091e-03,1.852941307389055e+05,3.390488155311613e+03,1.477952186440553e+04,1.842896422790539e+05,
660,7.121877000000000e-02,-7.875283000000000e-03,9.962895023145228e-05,1.940404361604102e-03,1.768639091630408e+05,3.050116842191529e+03,1.429341782410869e+04,1.761489187401771e+05,
661,7.721327000000000e-02,-7.672873000000000e-03,9.769033451178021e-05,2.024348359787508e-03,1.688857493903283e+05,3.158422079821526e+03,1.373360923020938e+04,1.679880802540354e+05,
662,8.316086000000000e-02,-7.468335000000000e-03,9.559401134824592e-05,2.108729565863882e-03,1.611098402038392e+05,3.343191230920414e+03,1.315944654933740e+04,1.599468651211509e+05,
663,8.905962000000001e-02,-7.261940000000000e-03,9.334681147412415e-05,2.193477597744192e-03,1.534527668788803e+05,3.124883323541848e+03,1.271817827150283e+04,1.524646870865851e+05,
664,9.490684000000001e-02,-7.053912000000000e-03,9.095672708020732e-05,2.278505037596405e-03,1.460761430499044e+05,2.637001243551930e+03,1.232878800865884e+04,1.455430639267729e+05,
665,1.006927000000000e-01,-6.844346000000000e-03,8.842982120584409e-05,2.363616564164566e-03,1.391221676445085e+05,2.429439933968335e+03,1.185476338992093e+04,1.387337142480944e+05,
666,1.064041000000000e-01,-6.633491000000000e-03,8.577284952032987e-05,2.448568203197271e-03,1.324746759402347e+05,2.612201755259810e+03,1.132588095952580e+04,1.318232320931355e+05,
667,1.120528000000000e-01,-6.421913000000000e-03,8.299825153852110e-05,2.533490246755705e-03,1.259098628918638e+05,2.660697049739905e+03,1.083661128494306e+04,1.251402631343853e+05,
668,1.176359000000000e-01,-6.209823000000000e-03,8.011290578633973e-05,2.618295574969654e-03,1.194440234249636e+05,2.284369099526231e+03,1.046371309787729e+04,1.190140402172564e+05,
669,1.231511000000000e-01,-5.997430000000000e-03,7.712526906907868e-05,2.702900999102231e-03,1.132705228125974e+05,1.842815548564147e+03,1.007827981530888e+04,1.132361286969037e+05,
670,1.285761000000000e-01,-5.785022000000000e-03,7.404407075271944e-05,2.786912806965288e-03,1.074502812593543e+05,1.785523958373631e+03,9.634262614796979e+03,1.074072483587521e+05,
671,1.339162000000000e-01,-5.572972000000000e-03,7.087921083396824e-05,2.870364964846884e-03,1.017991027125202e+05,1.924121780243109e+03,9.156447604268209e+03,1.015400115577182e+05,
672,1.391778000000000e-01,-5.361479000000000e-03,6.763735731901029e-05,2.953315109361673e-03,9.618045575306246e+04,1.789732422405075e+03,8.748601923320990e+03,9.599875412387209e+04,
673,1.443584000000000e-01,-5.150745000000000e-03,6.432608403184343e-05,3.035680233095490e-03,9.068880504328973e+04,1.361170672557793e+03,8.406410433023078e+03,9.089607916596252e+04,
674,1.494538000000000e-01,-4.940995000000000e-03,6.095412297143056e-05,3.117347331896144e-03,8.548330434097724e+04,1.049119644365898e+03,8.014454015496285e+03,8.594217496693632e+04,
675,1.544304000000000e-01,-4.732990000000000e-03,5.753875537212361e-05,3.197728376850882e-03,8.053007630761091e+04,1.059837384851462e+03,7.619194847857725e+03,8.091802886229346e+04,
676,1.593162000000000e-01,-4.526578000000000e-03,5.408100903899113e-05,3.277230337044739e-03,7.565168862323633e+04,1.058135242743929e+03,7.201255024437939e+03,7.597124786151890e+04,
677,1.641087000000000e-01,-4.321953000000000e-03,5.058782774181435e-05,3.355772425478640e-03,7.081874653390603e+04,7.947509106231100e+02,6.845381003130953e+03,7.134982079418034e+04,
678,1.688059000000000e-01,-4.119309000000000e-03,4.706698391102619e-05,3.433279817845317e-03,6.614746975870157e+04,4.307153758510935e+02,6.499583473770801e+03,6.699007499582272e+04,
679,1.733892000000000e-01,-3.919247000000000e-03,4.353394016924197e-05,3.509401211958055e-03,6.170789804491750e+04,2.472979073016209e+02,6.134397039753198e+03,6.267318946280969e+04,
680,1.778487000000000e-01,-3.722276000000000e-03,4.000208224870349e-05,3.583927047452922e-03,5.741452475769418e+04,2.144479414662560e+02,5.767906564439349e+03,5.835172467311301e+04,
681,1.822038000000000e-01,-3.528098000000000e-03,3.646919975785725e-05,3.657140500173732e-03,5.316847315819668e+04,8.005086167805416e+01,5.405183934083046e+03,5.417789803396375e+04,
682,1.864526000000000e-01,-3.336902000000000e-03,3.294249738535104e-05,3.728971422402889e-03,4.899689652871779e+04,-2.083507157461446e+02,5.070952138675699e+03,5.023957184092819e+04,
683,1.905931000000000e-01,-3.148878000000000e-03,2.942955197631706e-05,3.799347400057571e-03,4.499084689085318e+04,-4.902797692272659e+02,4.722228700157806e+03,4.645137950434471e+04,
684,1.945892000000000e-01,-2.965340000000000e-03,2.596011306699559e-05,3.867613213494564e-03,4.115297812329733e+04,-6.325031368117659e+02,4.397308413530322e+03,4.270095700653261e+04,
685,1.984619000000000e-01,-2.785851000000000e-03,2.252905468536121e-05,3.934086890204464e-03,3.739817229711905e+04,-7.406729957540460e+02,4.057138829242544e+03,3.899247391731766e+04,
686,2.022186000000000e-01,-2.610320000000000e-03,1.913781123486787e-05,3.998859643272400e-03,3.369605538328973e+04,-9.436305470923286e+02,3.726067330058390e+03,3.543221912818928e+04,
687,2.058574000000000e-01,-2.438929000000000e-03,1.579348158463046e-05,4.061864216751624e-03,3.008666673141904e+04,-1.221575191694988e+03,3.404082519876998e+03,3.203993014232028e+04,
688,2.093693000000000e-01,-2.272136000000000e-03,1.250888316572165e-05,4.122910083248899e-03,2.663321046359857e+04,-1.459733175351479e+03,3.076752171246892e+03,2.875898290959389e+04,
689,2.127198000000000e-01,-2.111451000000000e-03,9.318371132684322e-06,4.181360871229181e-03,2.330596556129902e+04,-1.621237399122486e+03,2.781001372857437e+03,2.554019032766566e+04,
690,2.159455000000000e-01,-1.955654000000000e-03,6.200126060266395e-06,4.237820770722709e-03,2.004427895175409e+04,-1.807477093026098e+03,2.469346436301789e+03,2.240290002500776e+04,
691,2.190452000000000e-01,-1.804917000000000e-03,3.160717598654246e-06,4.292238827687572e-03,1.686541156133421e+04,-2.046305000728829e+03,2.161348353777905e+03,1.939945180022681e+04,
692,2.220172000000000e-01,-1.659409000000000e-03,2.067775362771655e-07,4.344556255393902e-03,1.381290447332886e+04,-2.313497819905923e+03,1.861483223711602e+03,1.655056887517426e+04,
693,2.248340000000000e-01,-1.520441000000000e-03,-2.631247335397815e-06,4.394259802742688e-03,1.092541083809464e+04,-2.531681428165639e+03,1.580481382621221e+03,1.382335045732009e+04,
694,2.274956000000000e-01,-1.388210000000000e-03,-5.346240226617662e-06,4.441321193711548e-03,8.151122606646917e+03,-2.765637003702712e+03,1.301659874739335e+03,1.122287459201904e+04,
695,2.300241000000000e-01,-1.261872000000000e-03,-7.953120503569083e-06,4.486106096463814e-03,5.494926344192821e+03,-2.978944845049931e+03,1.027967286312503e+03,8.719710998582072e+03,
696,2.324184000000000e-01,-1.141571000000000e-03,-1.044626867609218e-05,4.528573025905890e-03,3.021131577210232e+03,-3.137672515028205e+03,7.722500619571479e+02,6.349515609819712e+03,
697,2.346773000000000e-01,-1.027452000000000e-03,-1.281997128893546e-05,4.568681028090551e-03,6.833790161499593e+02,-3.525916841046473e+03,5.153458451149341e+02,4.333647075353500e+03,
698,2.367526000000000e-01,-9.219766000000000e-04,-1.502009924295435e-05,4.605555344365719e-03,-1.449076219605889e+03,-3.838740958492960e+03,2.910282605758893e+02,2.459529905916072e+03,
699,2.386838000000000e-01,-8.234458000000000e-04,-1.708056556855395e-05,4.639882012020073e-03,-3.297428605810340e+03,-3.929595419433002e+03,1.115430886584657e+02,6.703747629167653e+02,
700,2.404756000000000e-01,-7.315702000000000e-04,-1.900493881632877e-05,4.671732979879757e-03,-4.897464205434525e+03,-4.204106377428173e+03,-5.624060653057502e+01,7.024223095470358e+02,
701,2.421274000000000e-01,-6.463714000000000e-04,-2.079061640995111e-05,4.701088395773128e-03,-6.192031224323830e+03,-4.531136033144220e+03,-1.838738220812602e+02,1.701120561827008e+03,
702,2.436242000000000e-01,-5.686115000000000e-04,-2.241991179923723e-05,4.727675715467896e-03,-7.126486305810851e+03,-4.731873540818571e+03,-2.861233749367001e+02,2.462039121745356e+03,
703,2.449378000000000e-01,-5.007725000000000e-04,-2.384282063776588e-05,4.750992466464593e-03,-7.676588744817467e+03,-5.003362069821952e+03,-3.057401670112373e+02,2.742270784369006e+03,
704,2.461073000000000e-01,-4.410136000000000e-04,-2.509741985719782e-05,4.771733904340381e-03,-7.743792766309067e+03,-5.197621974079701e+03,-2.909833562627669e+02,2.611832873230921e+03,
705,2.471341000000000e-01,-3.878144000000000e-04,-2.621049756823810e-05,4.789928047298112e-03,-7.321229077847528e+03,-5.116549043015895e+03,-3.768967487278254e+02,2.329982552035879e+03,
706,2.480196000000000e-01,-3.396357000000000e-04,-2.720954357573218e-05,4.805604972392446e-03,-6.650102793081044e+03,-5.812448333205831e+03,1.522921011848064e+01,8.382080347456556e+02,
707,2.487303000000000e-01,-2.969031000000000e-04,-2.808118965403772e-05,4.818176956037899e-03,-5.483524961547319e+03,-5.511465161370806e+03,-2.991425138008742e+02,5.989370826878269e+02,
708,2.492635000000000e-01,-2.724930000000000e-04,-2.859892053017667e-05,4.827605308025560e-03,-4.431475682293469e+03,-4.545060789035646e+03,-5.924367797256018e+02,1.190305392897218e+03,
709,2.496380000000000e-01,-2.665644000000000e-04,-2.876365454119487e-05,4.834226682681507e-03,-2.589191057960573e+03,-3.477160457100467e+03,-5.025522715378252e+02,1.341165461947249e+03,
710,2.498726000000000e-01,-2.634291000000000e-04,-2.885582250209731e-05,4.838372629862787e-03,-1.608834505353222e+03,2.239505875255554e+03,-2.655697602432618e+03,6.559012327118277e+03,
711,2.500443000000000e-01,-1.975620000000000e-04,-3.004916511514604e-05,4.841399948542660e-03,2.753919105989279e+03,7.925511845144370e+03,-5.664082444265605e+03,1.245281860469480e+04,
712,-1.495276000000000e-01,-1.435740000000000e-02,0.000000000000000e+00,0.000000000000000e+00,1.730199185474018e+06,6.041700190359367e+05,3.188810852998219e+05,1.294095154892873e+06,
713,-1.444322000000000e-01,-1.449068000000000e-02,1.106363783669671e-05,6.269172871041201e-06,1.417489440372193e+06,2.961912955248367e+04,4.162307133110841e+04,1.390364671560284e+06,
714,-1.392533000000000e-01,-1.460910000000000e-02,2.091945956003676e-05,1.313314857549089e-05,1.303393728346262e+06,6.684233479769174e+04,-4.498107556693336e+03,1.236584117952870e+06,
715,-1.339933000000000e-01,-1.471270000000000e-02,3.050578391009730e-05,2.339624128481560e-05,1.238931470290298e+06,5.579725871168499e+04,1.664752183557284e+03,1.183138896413721e+06,
716,-1.286547000000000e-01,-1.480152000000000e-02,3.978923194994652e-05,3.705968037821181e-05,1.176812226380415e+06,5.797918411914015e+04,4.771774603111546e+03,1.118873744346104e+06,
717,-1.232297000000000e-01,-1.487356000000000e-02,4.870310803708389e-05,5.418588812984543e-05,1.112128018658156e+06,5.522575870222200e+04,8.445051823839563e+03,1.057037209705122e+06,
718,-1.177160000000000e-01,-1.492754000000000e-02,5.723265123335001e-05,7.472684719411093e-05,1.051485637493158e+06,5.262769235694499e+04,1.102219084327368e+04,9.991011707157991e+05,
719,-1.121342000000000e-01,-1.496711000000000e-02,6.536239716821421e-05,9.854695447119297e-05,9.950780685471341e+05,5.011772376725194e+04,1.291943875755379e+04,9.453135462891423e+05,
720,-1.064868000000000e-01,-1.499240000000000e-02,7.309295561517935e-05,1.255651187233176e-04,9.424260470956462e+05,4.804415983276097e+04,1.436365078710081e+04,8.948431248658368e+05,
721,-1.007766000000000e-01,-1.500356000000000e-02,8.042213930183508e-05,1.557065582173354e-04,8.929509673917532e+05,4.604014437086765e+04,1.583384347775689e+04,8.475026752447607e+05,
722,-9.499069000000000e-02,-1.499693000000000e-02,8.734680994229617e-05,1.889897883412189e-04,8.469410433445820e+05,4.392365022389515e+04,1.714065753316819e+04,8.037488054218314e+05,
723,-8.914457000000001e-02,-1.497536000000000e-02,9.387011669162574e-05,2.252771044176658e-04,8.042362396577406e+05,4.189957438249762e+04,1.805862064702839e+04,7.631917493930808e+05,
724,-8.324681000000000e-02,-1.494045000000000e-02,9.999681996579068e-05,2.644549436850960e-04,7.642870773287858e+05,4.017405480793028e+04,1.866318999441319e+04,7.250744293018195e+05,
725,-7.730015000000000e-02,-1.489242000000000e-02,1.057288007147551e-04,3.064460930448606e-04,7.266381613152816e+05,3.863472540942072e+04,1.912950416185868e+04,6.890663825323249e+05,
726,-7.130565000000000e-02,-1.483100000000000e-02,1.110647468694249e-04,3.511883748194652e-04,6.911271295795322e+05,3.707218396466198e+04,1.967906628101138e+04,6.552380746583950e+05,
727,-6.525549999999999e-02,-1.475287000000000e-02,1.159907687341102e-04,3.986915036245713e-04,6.580589609173887e+05,3.552890715130186e+04,2.003498188445973e+04,6.238182987364585e+05,
728,-5.916815000000000e-02,-1.466269000000000e-02,1.205321433780920e-04,4.487613191055691e-04,6.269698850264964e+05,3.410842775753068e+04,2.014193093936999e+04,5.942284889189907e+05,
729,-5.304641000000000e-02,-1.456073000000000e-02,1.246912596667429e-04,5.013184341760747e-04,5.974733840461965e+05,3.277639237218488e+04,2.017019741921581e+04,5.661360612621310e+05,
730,-4.689310000000000e-02,-1.444728000000000e-02,1.284718405630951e-04,5.562843489536759e-04,5.695672613627343e+05,3.147144595293349e+04,2.022190093858218e+04,5.396135725422570e+05,
731,-4.070687000000000e-02,-1.432072000000000e-02,1.318652920101355e-04,6.136189732737945e-04,5.434009622157078e+05,3.025579484224801e+04,2.022264430912214e+04,5.147366163098843e+05,
732,-3.449269000000000e-02,-1.418142000000000e-02,1.348769941546931e-04,6.732271835399649e-04,5.187904357361975e+05,2.918245898471187e+04,2.004472507717730e+04,4.912465113487950e+05,
733,-2.825901000000000e-02,-1.403192000000000e-02,1.375284403017789e-04,7.349787778840558e-04,4.952469695395021e+05,2.811375654132853e+04,1.980006183934394e+04,4.688087120365453e+05,
734,-2.200871000000000e-02,-1.387254000000000e-02,1.398231769049823e-04,7.987938232442114e-04,4.727042855722534e+05,2.691893464342688e+04,1.960619882030983e+04,4.475066381982094e+05,
735,-1.574467000000000e-02,-1.370361000000000e-02,1.417679789967026e-04,8.645892788412700e-04,4.514668289541586e+05,2.577009277603334e+04,1.943890413432482e+04,4.274683557510220e+05,
736,-9.468287000000001e-03,-1.352272000000000e-02,1.433445541167410e-04,9.322976893525036e-04,4.316767012953766e+05,2.491507968789960e+04,1.912142008363976e+04,4.085554205206491e+05,
737,-3.186947000000000e-03,-1.333279000000000e-02,1.445852452461750e-04,1.001792160042130e-03,4.127209935321637e+05,2.418444261651153e+04,1.867521791958285e+04,3.903276911196627e+05,
738,3.095891000000000e-03,-1.313470000000000e-02,1.454987524244279e-04,1.072987677664930e-03,3.942352883529392e+05,2.322851277849291e+04,1.832436544934222e+04,3.728124957651389e+05,
739,9.377325000000001e-03,-1.292879000000000e-02,1.460908525700744e-04,1.145800650449935e-03,3.765497276673808e+05,2.206638460827068e+04,1.806877718699011e+04,3.563205906799314e+05,
740,1.565371000000000e-02,-1.271483000000000e-02,1.463652320472250e-04,1.220134029020366e-03,3.601015777802925e+05,2.113761600979623e+04,1.773808788147540e+04,3.408153846672920e+05,
741,2.191793000000000e-02,-1.249190000000000e-02,1.463165430063662e-04,1.295851167608190e-03,3.446779485063463e+05,2.061631378901243e+04,1.723031570655696e+04,3.258887512834115e+05,
742,2.816851000000000e-02,-1.226256000000000e-02,1.459776915115482e-04,1.372889452400790e-03,3.295315632402761e+05,2.003708517267514e+04,1.671183033384726e+04,3.112940298925855e+05,
743,3.440257000000000e-02,-1.202713000000000e-02,1.453520261111842e-04,1.451168050493703e-03,3.146052708668128e+05,1.904141738972688e+04,1.637407922375257e+04,2.973725497821331e+05,
744,4.061722000000000e-02,-1.178595000000000e-02,1.444484335156160e-04,1.530598208812537e-03,3.005115487111639e+05,1.795449662696820e+04,1.608352053080901e+04,2.843821481970532e+05,
745,4.680344000000000e-02,-1.153829000000000e-02,1.432647945090147e-04,1.611008660876859e-03,2.875457361675507e+05,1.732621964702427e+04,1.562956365310348e+04,2.720215435375159e+05,
746,5.295731000000000e-02,-1.128508000000000e-02,1.418187999951843e-04,1.692299057979407e-03,2.751078938263804e+05,1.701984638754733e+04,1.503983551670930e+04,2.598349992596610e+05,
747,5.907970000000000e-02,-1.102748000000000e-02,1.401268829277975e-04,1.774438292371044e-03,2.626242038671766e+05,1.641116688866460e+04,1.456683011721771e+04,2.479306954308757e+05,
748,6.516779000000000e-02,-1.076581000000000e-02,1.381947800822002e-04,1.857341942009706e-03,2.503694299483585e+05,1.535785880581672e+04,1.426617444551744e+04,2.367372668257487e+05,
749,7.121877000000000e-02,-1.050038000000000e-02,1.360338358933114e-04,1.940918014423717e-03,2.390162023411969e+05,1.444770578643112e+04,1.392211611700226e+04,2.262881148305607e+05,
750,7.721327000000000e-02,-1.023050000000000e-02,1.336405897099568e-04,2.024843344652624e-03,2.285549726183127e+05,1.410872692878670e+04,1.340211039812223e+04,2.161149197598961e+05,
751,8.316086000000000e-02,-9.957779999999999e-03,1.310439211137758e-04,2.109205798171527e-03,2.181992483724030e+05,1.385593077831614e+04,1.282425953144950e+04,2.059466872165652e+05,
752,8.905962000000001e-02,-9.682586999999999e-03,1.282494718072003e-04,2.193936669842906e-03,2.077056500553609e+05,1.312624687886658e+04,1.243180662636245e+04,1.961615237616740e+05,
753,9.490684000000001e-02,-9.405215999999999e-03,1.252655740502685e-04,2.278948364409302e-03,1.975926578661571e+05,1.210945566118228e+04,1.214391406229405e+04,1.870666108508440e+05,
754,1.006927000000000e-01,-9.125795000000001e-03,1.221017617831626e-04,2.364043864449725e-03,1.883423345101749e+05,1.145999463798048e+04,1.174467003724139e+04,1.784351738189453e+05,
755,1.064041000000000e-01,-8.844654000000000e-03,1.187694611046061e-04,2.448978585974814e-03,1.796180068444407e+05,1.128014683381977e+04,1.120554984365108e+04,1.698231212236708e+05,
756,1.120528000000000e-01,-8.562551000000000e-03,1.152843466350924e-04,2.533884229708944e-03,1.707870460134372e+05,1.093714767033517e+04,1.070914507308613e+04,1.612784336267117e+05,
757,1.176359000000000e-01,-8.279764000000000e-03,1.116526690228394e-04,2.618674626756997e-03,1.619055589151835e+05,1.011251387804154e+04,1.037931848375794e+04,1.532059056642300e+05,
758,1.231511000000000e-01,-7.996573000000000e-03,1.078847353748144e-04,2.703265748968767e-03,1.535324249667263e+05,9.243105508792269e+03,1.006841277105418e+04,1.456876777649607e+05,
759,1.285761000000000e-01,-7.713363000000000e-03,1.039936884086943e-04,2.787262629785560e-03,1.458492665797326e+05,8.838220463432932e+03,9.640667961362811e+03,1.383611096834938e+05,
760,1.339162000000000e-01,-7.430629000000000e-03,9.999367503029828e-05,2.870699545256102e-03,1.383627079766228e+05,8.658142557660849e+03,9.139266451351366e+03,1.309861788724176e+05,
761,1.391778000000000e-01,-7.148639000000000e-03,9.589220731917573e-05,2.953635280870636e-03,1.307521118617328e+05,8.166667530377248e+03,8.732370752677798e+03,1.238232948914086e+05,
762,1.443584000000000e-01,-6.867660000000000e-03,9.169765859804159e-05,3.035986946214390e-03,1.232422237307528e+05,7.358223825737973e+03,8.420228520312878e+03,1.171012486155576e+05,
763,1.494538000000000e-01,-6.587994000000000e-03,8.742141179993028e-05,3.117640680038653e-03,1.162558869726155e+05,6.704413472604812e+03,8.073486307242543e+03,1.107350444558383e+05,
764,1.544304000000000e-01,-6.310653000000000e-03,8.308690081410913e-05,3.198007956025232e-03,1.097098094532138e+05,6.424591542477538e+03,7.657256436192036e+03,1.044144173157456e+05,
765,1.593162000000000e-01,-6.035437000000000e-03,7.869598567093542e-05,3.277496340710037e-03,1.031725666000115e+05,6.128890515219315e+03,7.223668260492477e+03,9.811320298818430e+04,
766,1.641087000000000e-01,-5.762604000000000e-03,7.425676531028783e-05,3.356025585276427e-03,9.661551093525850e+04,5.547573144206632e+03,6.869549101904523e+03,9.209849137183954e+04,
767,1.688059000000000e-01,-5.492413000000000e-03,6.977873584756888e-05,3.433520583046014e-03,9.028620171993674e+04,4.871287353736236e+03,6.543295605541997e+03,8.641161071124289e+04,
768,1.733892000000000e-01,-5.225662000000000e-03,6.528203344305344e-05,3.509629563115410e-03,8.435638359613002e+04,4.407741755097366e+03,6.183809223677006e+03,8.089958787463041e+04,
769,1.778487000000000e-01,-4.963035000000000e-03,6.078455703632807e-05,3.584142991631396e-03,7.863251345300071e+04,4.114828687239229e+03,5.793818740931294e+03,7.541325271635262e+04,
770,1.822038000000000e-01,-4.704131000000000e-03,5.628348280230548e-05,3.657344421585804e-03,7.291758143633048e+04,3.712228417825906e+03,5.420667312820131e+03,7.004937846177472e+04,
771,1.864526000000000e-01,-4.449203000000000e-03,5.178782603621465e-05,3.729163796157556e-03,6.726902575049752e+04,3.150607961896144e+03,5.079610979582397e+03,6.491826623169483e+04,
772,1.905931000000000e-01,-4.198504000000000e-03,4.730710406738059e-05,3.799528495306797e-03,6.187556169758747e+04,2.608632882883367e+03,4.743560869039913e+03,6.002144891620286e+04,
773,1.945892000000000e-01,-3.953786000000000e-03,4.287969598776751e-05,3.867783176744688e-03,5.675044469121250e+04,2.225523365108441e+03,4.398694383840877e+03,5.523007418741685e+04,
774,1.984619000000000e-01,-3.714468000000000e-03,3.849943645049762e-05,3.934245947072618e-03,5.171099355345478e+04,1.883069495239114e+03,4.041187857271932e+03,5.047917207267130e+04,
775,2.022186000000000e-01,-3.480426000000000e-03,3.416823389769711e-05,3.999008184407210e-03,4.672707313860927e+04,1.442594208163543e+03,3.697932478715612e+03,4.588445107517952e+04,
776,2.058574000000000e-01,-3.251905000000000e-03,2.989515130327842e-05,4.062002609093067e-03,4.185442753909167e+04,9.312545149214976e+02,3.365836403634581e+03,4.147314202167828e+04,
777,2.093693000000000e-01,-3.029515000000000e-03,2.569653946875313e-05,4.123038613628661e-03,3.721956292265146e+04,4.719113372576438e+02,3.041386100458141e+03,3.724768468898082e+04,
778,2.127198000000000e-01,-2.815267000000000e-03,2.161658509257332e-05,4.181479857783066e-03,3.276551045314632e+04,1.004225528896002e+02,2.718095601169144e+03,3.311434949262749e+04,
779,2.159455000000000e-01,-2.607538000000000e-03,1.762764730908538e-05,4.237930544333822e-03,2.837505020165085e+04,-2.934368884667425e+02,2.395347595455471e+03,2.906600957215242e+04,
780,2.190452000000000e-01,-2.406556000000000e-03,1.373828629646926e-05,4.292339763400215e-03,2.409407771935226e+04,-7.363414241383196e+02,2.072233846731839e+03,2.517392157180894e+04,
781,2.220172000000000e-01,-2.212545000000000e-03,9.956918580654161e-06,4.344648718723792e-03,1.998304913681766e+04,-1.199740052759019e+03,1.769240706864757e+03,2.147629876317974e+04,
782,2.248340000000000e-01,-2.027254000000000e-03,6.322658276728174e-06,4.394344181044934e-03,1.610729823938358e+04,-1.601980395431451e+03,1.478083532583782e+03,1.795431629115120e+04,
783,2.274956000000000e-01,-1.850947000000000e-03,2.844846260993704e-06,4.441397915264982e-03,1.237437404227495e+04,-2.014532139336837e+03,1.181375799939999e+03,1.458160540633168e+04,
784,2.300241000000000e-01,-1.682496000000000e-03,-4.955312261786041e-07,4.486175518149205e-03,8.794814609689536e+03,-2.398712192605712e+03,9.003948543136639e+02,1.133745499873760e+04,
785,2.324184000000000e-01,-1.522094000000000e-03,-3.691065880790885e-06,4.528635512104969e-03,5.461006517775517e+03,-2.711024874178738e+03,6.415819660878822e+02,8.272158530149345e+03,
786,2.346773000000000e-01,-1.369935000000000e-03,-6.734380563492903e-06,4.568737091596659e-03,2.313826350501255e+03,-3.255260842479239e+03,3.823367848570724e+02,5.621339505068052e+03,
787,2.367526000000000e-01,-1.229302000000000e-03,-9.556052030659032e-06,4.605605458834868e-03,-5.673452382195085e+02,-3.705401350096441e+03,1.468239377240996e+02,3.151765415769932e+03,
788,2.386838000000000e-01,-1.097928000000000e-03,-1.219925292330744e-05,4.639926525764801e-03,-3.074823401518669e+03,-3.909782257644552e+03,-2.304882850773622e+01,8.362304021054007e+02,
789,2.404756000000000e-01,-9.754269000000000e-04,-1.466850482573864e-05,4.671772390148305e-03,-5.246591284073951e+03,-4.292238990832925e+03,-1.834395089900528e+02,1.022442425493218e+03,
790,2.421274000000000e-01,-8.618286000000000e-04,-1.696055257688298e-05,4.701123127805436e-03,-7.023857780089577e+03,-4.707740451391457e+03,-2.961111395161513e+02,2.390633118669181e+03,
791,2.436242000000000e-01,-7.581486000000000e-04,-1.905260678659091e-05,4.727706180634928e-03,-8.339810984925516e+03,-4.974016863994315e+03,-3.924602668166540e+02,3.456106235145881e+03,
792,2.449378000000000e-01,-6.676967000000000e-04,-2.087957609523969e-05,4.751019262704554e-03,-9.154043437616358e+03,-5.283325250110019e+03,-3.800098635883015e+02,3.944627900422287e+03,
793,2.461073000000000e-01,-5.880181000000000e-04,-2.249010256712362e-05,4.771757499244963e-03,-9.287678377555309e+03,-5.504967461633958e+03,-3.205535878534728e+02,3.836654829949322e+03,
794,2.471341000000000e-01,-5.170859000000000e-04,-2.391962588442427e-05,4.789948768157202e-03,-8.866255215149471e+03,-5.388681518971111e+03,-4.229468705593174e+02,3.578974019689902e+03,
795,2.480196000000000e-01,-4.528477000000000e-04,-2.520507938301861e-05,4.805623245813114e-03,-8.055907519724848e+03,-6.059159119914960e+03,9.743267764553480e+01,2.006234452609185e+03,
796,2.487303000000000e-01,-3.958708000000000e-04,-2.632992466371152e-05,4.818192943541542e-03,-6.515951831556364e+03,-5.773342456900955e+03,-2.539139552760723e+02,8.996431904159890e+02,
797,2.492635000000000e-01,-3.633241000000000e-04,-2.699219187348210e-05,4.827619855324796e-03,-5.876285774363574e+03,-4.681564545120333e+03,-7.443025748171132e+02,1.908744117770116e+03,
798,2.496380000000000e-01,-3.554192000000000e-04,-2.719297078933046e-05,4.834240948021909e-03,-2.248997211243838e+03,-3.790091696204462e+03,1.872745399508048e+02,1.585956879877631e+03,
799,2.498726000000000e-01,-3.512388000000000e-04,-2.730255849513509e-05,4.838386150218925e-03,4.295056299947795e+03,3.218382367638904e+03,-2.849840249872744e+03,5.800481407236166e+03,
800,2.500000000000000e-01,-3.150000000000000e-04,-2.796287626037612e-05,4.840633550322596e-03,1.232471731726583e+04,1.318982307898891e+04,-7.497298051635897e+03,1.501953129359303e+04,
